Beryl+water, scan_3                     
   1.00000000000000     
     9.2080001830999993    0.0000000000000000    0.0000000000000000
    -4.6040000915999997    7.9743620766000003    0.0000000000000000
     0.0000000000000000    0.0000000000000000    9.1879997252999992
   Be   Al   Si   O    H 
     6     4    12    37     2
Direct
  0.4970436097666701  1.0000013625349413  0.2500013563616106
  0.4992633986885123  0.0000197359818874  0.7500042208280495
  0.9989184107956234  0.5010792012934258  0.2500810052084833
  0.9985213977023447  0.4994847189884185  0.7501743605677743
  0.4978898068886685  0.4989731162904432  0.2499146788106378
  0.4990137373515497  0.5005215932306354  0.7498185715556037
  0.3317049421216872  0.6665879733020396  0.2500164729152042
  0.6651181310941156  0.3332906486094934  0.7499737913022871
  0.6651328026161091  0.3334314119501683  0.2499810587330426
  0.3318495335551728  0.6667487558005855  0.7500260673695232
  0.3865150920538152  0.1157134205243187  0.9993338237990996
  0.6108068210792060  0.8844649085019686  0.0007002792356694
  0.8835191385842222  0.2726342485739016  0.0003803677793424
  0.1144715420837187  0.7281821571321229  0.9997874369431660
  0.7266319681493132  0.6121283950911861  0.0002532705033874
  0.2713716076906271  0.3880552329603181  0.9994830621245333
  0.1145107183674800  0.3878923416705272  0.4997290861331786
  0.8833192700619853  0.6119628920738472  0.5005370691523976
  0.2708061037173650  0.8842999037726327  0.5006663955300915
  0.7263406831621216  0.1155509110849941  0.4993129120901644
  0.6108880697325541  0.7273859905441799  0.4996462582405337
  0.3862898548213303  0.2718285995016194  0.5001802488406044
  0.3083662369979031  0.2360516420722948  0.9961288669648720
  0.6918989793549719  0.7661974138301934  0.0020652532199612
  0.7662478137807507  0.0727785365307073  0.0039594926441576
  0.2346155132424999  0.9266638321236251  0.9962160601158173
  0.9252827993198794  0.6911117689280747  0.9981503441079180
  0.0722659674717535  0.3080114040771887  0.9990856298422582
  0.2341084611003505  0.3088155646530788  0.5017209174496541
  0.7642131895940093  0.6919501897900003  0.5010876893916968
  0.0723234058914291  0.7639503638570276  0.5038757808695019
  0.9257055777395596  0.2338085973507810  0.4979312873288225
  0.6934861816914896  0.9272462721917303  0.4960967963719675
  0.3079618541529916  0.0733506572467856  0.5037729899114143
  0.4975004674099394  0.1451611680135782  0.1456299379206116
  0.5014822721949165  0.8556953463881253  0.8538868987764846
  0.8539861621497573  0.3544810739844657  0.1463060484835416
  0.1437129539026692  0.6451813817812668  0.8540623716588379
  0.6447672052090189  0.5008079242996754  0.1462662225941262
  0.3532132955818262  0.5002988564376891  0.8537214070441612
  0.4991336101885739  0.8548983412749320  0.1464328173890812
  0.4992203220550919  0.1454310136333835  0.8537647016530521
  0.1440132197002539  0.6467191611488140  0.1460741912494464
  0.8529880703781088  0.3526048572812461  0.8538870694488402
  0.3526458070506684  0.4989505884951690  0.1457973824882381
  0.6448156214980917  0.5017227210619352  0.8538110769322891
  0.1439562759426105  0.4992205000801658  0.3537218704351918
  0.8529413525202216  0.4996894356447904  0.6462850290121522
  0.3523348103555575  0.8548431212435597  0.3543689152237440
  0.6457988287399014  0.1443375745018604  0.6461234376710265
  0.4995190666760119  0.6455327745149478  0.3537120226125423
  0.4985031219644339  0.3548326440541839  0.6459162794179110
  0.8536986352014040  0.5010773157449292  0.3542158933297086
  0.1431333294375358  0.4982942764034153  0.6461708279132609
  0.6442340537122101  0.1451032197098280  0.3535746085911817
  0.3538201602138785  0.8546185216625140  0.6462362936586803
  0.4972997532140127  0.3532824697220582  0.3538946471383862
  0.5003359069997980  0.6474058615941907  0.6461208250520598
  0.0272357101238015  0.9993944005077828  0.2500014812402914
  0.9632741750757713  0.9999899082817602  0.3341213157269016
  0.9633624489884283  0.0002016445004580  0.1658962745619466
 
  0.00000000E+00  0.00000000E+00  0.00000000E+00
  0.00000000E+00  0.00000000E+00  0.00000000E+00
  0.00000000E+00  0.00000000E+00  0.00000000E+00
  0.00000000E+00  0.00000000E+00  0.00000000E+00
  0.00000000E+00  0.00000000E+00  0.00000000E+00
  0.00000000E+00  0.00000000E+00  0.00000000E+00
  0.00000000E+00  0.00000000E+00  0.00000000E+00
  0.00000000E+00  0.00000000E+00  0.00000000E+00
  0.00000000E+00  0.00000000E+00  0.00000000E+00
  0.00000000E+00  0.00000000E+00  0.00000000E+00
  0.00000000E+00  0.00000000E+00  0.00000000E+00
  0.00000000E+00  0.00000000E+00  0.00000000E+00
  0.00000000E+00  0.00000000E+00  0.00000000E+00
  0.00000000E+00  0.00000000E+00  0.00000000E+00
  0.00000000E+00  0.00000000E+00  0.00000000E+00
  0.00000000E+00  0.00000000E+00  0.00000000E+00
  0.00000000E+00  0.00000000E+00  0.00000000E+00
  0.00000000E+00  0.00000000E+00  0.00000000E+00
  0.00000000E+00  0.00000000E+00  0.00000000E+00
  0.00000000E+00  0.00000000E+00  0.00000000E+00
  0.00000000E+00  0.00000000E+00  0.00000000E+00
  0.00000000E+00  0.00000000E+00  0.00000000E+00
  0.00000000E+00  0.00000000E+00  0.00000000E+00
  0.00000000E+00  0.00000000E+00  0.00000000E+00
  0.00000000E+00  0.00000000E+00  0.00000000E+00
  0.00000000E+00  0.00000000E+00  0.00000000E+00
  0.00000000E+00  0.00000000E+00  0.00000000E+00
  0.00000000E+00  0.00000000E+00  0.00000000E+00
  0.00000000E+00  0.00000000E+00  0.00000000E+00
  0.00000000E+00  0.00000000E+00  0.00000000E+00
  0.00000000E+00  0.00000000E+00  0.00000000E+00
  0.00000000E+00  0.00000000E+00  0.00000000E+00
  0.00000000E+00  0.00000000E+00  0.00000000E+00
  0.00000000E+00  0.00000000E+00  0.00000000E+00
  0.00000000E+00  0.00000000E+00  0.00000000E+00
  0.00000000E+00  0.00000000E+00  0.00000000E+00
  0.00000000E+00  0.00000000E+00  0.00000000E+00
  0.00000000E+00  0.00000000E+00  0.00000000E+00
  0.00000000E+00  0.00000000E+00  0.00000000E+00
  0.00000000E+00  0.00000000E+00  0.00000000E+00
  0.00000000E+00  0.00000000E+00  0.00000000E+00
  0.00000000E+00  0.00000000E+00  0.00000000E+00
  0.00000000E+00  0.00000000E+00  0.00000000E+00
  0.00000000E+00  0.00000000E+00  0.00000000E+00
  0.00000000E+00  0.00000000E+00  0.00000000E+00
  0.00000000E+00  0.00000000E+00  0.00000000E+00
  0.00000000E+00  0.00000000E+00  0.00000000E+00
  0.00000000E+00  0.00000000E+00  0.00000000E+00
  0.00000000E+00  0.00000000E+00  0.00000000E+00
  0.00000000E+00  0.00000000E+00  0.00000000E+00
  0.00000000E+00  0.00000000E+00  0.00000000E+00
  0.00000000E+00  0.00000000E+00  0.00000000E+00
  0.00000000E+00  0.00000000E+00  0.00000000E+00
  0.00000000E+00  0.00000000E+00  0.00000000E+00
  0.00000000E+00  0.00000000E+00  0.00000000E+00
  0.00000000E+00  0.00000000E+00  0.00000000E+00
  0.00000000E+00  0.00000000E+00  0.00000000E+00
  0.00000000E+00  0.00000000E+00  0.00000000E+00
  0.00000000E+00  0.00000000E+00  0.00000000E+00
  0.00000000E+00  0.00000000E+00  0.00000000E+00
  0.00000000E+00  0.00000000E+00  0.00000000E+00
