Beryl+water, scan_3                     
   1.00000000000000     
     9.2080001830999993    0.0000000000000000    0.0000000000000000
    -4.6040000915999997    7.9743620766000003    0.0000000000000000
     0.0000000000000000    0.0000000000000000    9.1879997252999992
   Be   Al   Si   O    H 
     6     4    12    37     2
Direct
  0.4970533022195808 -0.0000009409757448  0.2500016994779595
  0.4992940356990113  0.0000132390061454  0.7500028796341508
  0.9989612896746600  0.5010593978506094  0.2500899719040945
  0.9985603115379031  0.4994806158324145  0.7501858638572281
  0.4979367719622974  0.4989772805338368  0.2499157179080611
  0.4990806989744672  0.5005319455561853  0.7498148756578150
  0.3317421417432928  0.6665780719256067  0.2500150619289063
  0.6651496920168294  0.3332665691950548  0.7499955309608490
  0.6651700255953817  0.3334325791512843  0.2499881284600277
  0.3319019044733615  0.6667571703800979  0.7500067809032206
  0.3865284169599461  0.1157050709489209  0.9993365246179698
  0.6108254357174754  0.8844538614390379  0.0007010664365430
  0.8835674157529976  0.2726248677736501  0.0003958262627813
  0.1145047306972583  0.7281716299610718  0.9997909088294362
  0.7266728322447675  0.6121265336809931  0.0002622238427106
  0.2714241398465362  0.3880724544707249  0.9994666495192935
  0.1145549543720880  0.3878931695956022  0.4997344547545607
  0.8833515354725471  0.6119377994097241  0.5005392169843932
  0.2708238667470864  0.8843026783138981  0.5006663799618601
  0.7263762852989235  0.1155596919798518  0.4993082171421283
  0.6109519074889631  0.7273930391626168  0.4996161769152015
  0.3863370861345903  0.2718389183796207  0.5001995395986489
  0.3083813635388503  0.2360452505770026  0.9961268043763198
  0.6919153328655631  0.7661831320577610  0.0020588685772674
  0.7662855162638301  0.0727645589099000  0.0040173367208106
  0.2346353385481685  0.9266542794048436  0.9962432820088966
  0.9253161749717198  0.6910883582639228  0.9981137531240926
  0.0723231950545490  0.3080325273163351  0.9990284351008051
  0.2342055163660616  0.3088909907496589  0.5017979691752946
  0.7642513589912959  0.6919251286721887  0.5010341008192850
  0.0723376078325398  0.7639569871150135  0.5038820828378923
  0.9257445348799592  0.2338211134628590  0.4979451687031936
  0.6935455924756925  0.9272566167011330  0.4960151797585782
  0.3079826854572293  0.0733556589651555  0.5037542732447411
  0.4975130301114147  0.1451590836513647  0.1456328917409106
  0.5015292359348344  0.8557013894148577  0.8538732005937941
  0.8540379920857640  0.3544848103497142  0.1463135511322169
  0.1437735201522455  0.6451916459466288  0.8540626013578063
  0.6448528689716628  0.5008420718946861  0.1462999152483322
  0.3532919541353205  0.5003263987084350  0.8537078794813988
  0.4991410974339645  0.8548983225191387  0.1464230260262324
  0.4992331899217056  0.1453939458434420  0.8537732481578764
  0.1440383750196559  0.6467243900151172  0.1460928085613235
  0.8530104614514051  0.3525770704245919  0.8538999141377416
  0.3526917196240288  0.4989525959162001  0.1457909776058613
  0.6448414740735773  0.5016756447230469  0.8538428411333514
  0.1440071499031528  0.4991844984041311  0.3537036324534972
  0.8529726866493909  0.4996664896614487  0.6462895278949751
  0.3523505013468135  0.8548387938473775  0.3543674726738687
  0.6458395231908336  0.1443279026749188  0.6461330888171259
  0.4995647325570254  0.6455359970613234  0.3536938858632530
  0.4985620162628840  0.3548196401078405  0.6459353521553886
  0.8537344393973632  0.5010498686389689  0.3542219955114672
  0.1431872038391932  0.4983376095737842  0.6461538379234425
  0.6442452774703495  0.1451038559422220  0.3535771616601333
  0.3538601853478497  0.8546343012813046  0.6462269546176062
  0.4973224490110429  0.3532898925189912  0.3539018081972931
  0.5004274863741771  0.6474319867427256  0.6461053957159659
  0.0265375875751339  0.9995323652360943  0.2500034027611431
  0.9624135640579569  0.9998059403623530  0.3341213087198976
  0.9626565371321363  0.0003131068041620  0.1658941193192146
 
  0.00000000E+00  0.00000000E+00  0.00000000E+00
  0.00000000E+00  0.00000000E+00  0.00000000E+00
  0.00000000E+00  0.00000000E+00  0.00000000E+00
  0.00000000E+00  0.00000000E+00  0.00000000E+00
  0.00000000E+00  0.00000000E+00  0.00000000E+00
  0.00000000E+00  0.00000000E+00  0.00000000E+00
  0.00000000E+00  0.00000000E+00  0.00000000E+00
  0.00000000E+00  0.00000000E+00  0.00000000E+00
  0.00000000E+00  0.00000000E+00  0.00000000E+00
  0.00000000E+00  0.00000000E+00  0.00000000E+00
  0.00000000E+00  0.00000000E+00  0.00000000E+00
  0.00000000E+00  0.00000000E+00  0.00000000E+00
  0.00000000E+00  0.00000000E+00  0.00000000E+00
  0.00000000E+00  0.00000000E+00  0.00000000E+00
  0.00000000E+00  0.00000000E+00  0.00000000E+00
  0.00000000E+00  0.00000000E+00  0.00000000E+00
  0.00000000E+00  0.00000000E+00  0.00000000E+00
  0.00000000E+00  0.00000000E+00  0.00000000E+00
  0.00000000E+00  0.00000000E+00  0.00000000E+00
  0.00000000E+00  0.00000000E+00  0.00000000E+00
  0.00000000E+00  0.00000000E+00  0.00000000E+00
  0.00000000E+00  0.00000000E+00  0.00000000E+00
  0.00000000E+00  0.00000000E+00  0.00000000E+00
  0.00000000E+00  0.00000000E+00  0.00000000E+00
  0.00000000E+00  0.00000000E+00  0.00000000E+00
  0.00000000E+00  0.00000000E+00  0.00000000E+00
  0.00000000E+00  0.00000000E+00  0.00000000E+00
  0.00000000E+00  0.00000000E+00  0.00000000E+00
  0.00000000E+00  0.00000000E+00  0.00000000E+00
  0.00000000E+00  0.00000000E+00  0.00000000E+00
  0.00000000E+00  0.00000000E+00  0.00000000E+00
  0.00000000E+00  0.00000000E+00  0.00000000E+00
  0.00000000E+00  0.00000000E+00  0.00000000E+00
  0.00000000E+00  0.00000000E+00  0.00000000E+00
  0.00000000E+00  0.00000000E+00  0.00000000E+00
  0.00000000E+00  0.00000000E+00  0.00000000E+00
  0.00000000E+00  0.00000000E+00  0.00000000E+00
  0.00000000E+00  0.00000000E+00  0.00000000E+00
  0.00000000E+00  0.00000000E+00  0.00000000E+00
  0.00000000E+00  0.00000000E+00  0.00000000E+00
  0.00000000E+00  0.00000000E+00  0.00000000E+00
  0.00000000E+00  0.00000000E+00  0.00000000E+00
  0.00000000E+00  0.00000000E+00  0.00000000E+00
  0.00000000E+00  0.00000000E+00  0.00000000E+00
  0.00000000E+00  0.00000000E+00  0.00000000E+00
  0.00000000E+00  0.00000000E+00  0.00000000E+00
  0.00000000E+00  0.00000000E+00  0.00000000E+00
  0.00000000E+00  0.00000000E+00  0.00000000E+00
  0.00000000E+00  0.00000000E+00  0.00000000E+00
  0.00000000E+00  0.00000000E+00  0.00000000E+00
  0.00000000E+00  0.00000000E+00  0.00000000E+00
  0.00000000E+00  0.00000000E+00  0.00000000E+00
  0.00000000E+00  0.00000000E+00  0.00000000E+00
  0.00000000E+00  0.00000000E+00  0.00000000E+00
  0.00000000E+00  0.00000000E+00  0.00000000E+00
  0.00000000E+00  0.00000000E+00  0.00000000E+00
  0.00000000E+00  0.00000000E+00  0.00000000E+00
  0.00000000E+00  0.00000000E+00  0.00000000E+00
  0.00000000E+00  0.00000000E+00  0.00000000E+00
  0.00000000E+00  0.00000000E+00  0.00000000E+00
  0.00000000E+00  0.00000000E+00  0.00000000E+00
