Beryl+water, scan_3                     
   1.00000000000000     
     9.2080001830999993    0.0000000000000000    0.0000000000000000
    -4.6040000915999997    7.9743620766000003    0.0000000000000000
     0.0000000000000000    0.0000000000000000    9.1879997252999992
   Be   Al   Si   O    H 
     6     4    12    38     4
Direct
  0.4975976081395845  1.0000006953830367  0.2499965190790452
  0.4975521202020280  0.9999966929975906  0.7499959936249937
  0.9987511052406018  0.5004390813549484  0.2499886864566253
  0.9987558250504469  0.5004367540873591  0.7500445247601228
  0.4983159775507490  0.4995658681533148  0.2500203124798373
  0.4983185224778569  0.4995593855780112  0.7499660062396426
  0.3315008159117509  0.6666386079125108  0.2500139481538085
  0.6648573894228311  0.3333534624223124  0.7499998307036311
  0.6648637629370160  0.3333653908074346  0.2499886718907547
  0.3315011784472974  0.6666402306124445  0.7500031130594514
  0.3864650678903069  0.1157433317832609 -0.0000031695294922
  0.6106760936752278  0.8844258785220048  0.9999974507569193
  0.8839485614025077  0.2731625961530033  1.0000035933112448
  0.1145882691408012  0.7282958635443778  0.0000171245667938
  0.7267956526781583  0.6119751760328108  0.9999915933830953
  0.2718754149810145  0.3883949118787127 -0.0000019864030893
  0.1148210258731970  0.3880246429680692  0.5000113404188690
  0.8834792755648072  0.6116013893314446  0.5000177239922733
  0.2707175325378616  0.8842534513265228  0.5000004786671048
  0.7262500988193913  0.1155727675838957  0.4999958799428384
  0.6107885749444335  0.7268372567678734  0.5000013521963044
  0.3862936603341617  0.2717032485128639  0.4999864195303629
  0.3096510719079322  0.2370742326142861  0.0000124347022970
  0.6932136513751047  0.7671550444703642  0.9999558778109322
  0.7688223553920619  0.0722235463141611  0.0000412712765509
  0.2357772187914691  0.9263528798031709  0.0000071290721750
  0.9251596760165040  0.6902150353446129 -0.0000310494584223
  0.0726121608492401  0.3081843515656845  1.0000062714766729
  0.2349447884528482  0.3097840499908069  0.5000295714469263
  0.7644238258772292  0.6918078800072460  0.5000000819523401
  0.0725729803503118  0.7629259685744261  0.4999882630108639
  0.9260605031549782  0.2328430553110647  0.5000380325477639
  0.6966051798098892  0.9277777629775776  0.4999515171512645
  0.3094221891362512  0.0736454149790766  0.4999930335923376
  0.4989240549916235  0.1454775268767034  0.1457345504279393
  0.5009400516602872  0.8557584182390819  0.8536027570371344
  0.8533176068103755  0.3531592669574758  0.1462724704029783
  0.1439215749821071  0.6455925886346989  0.8541737162031969
  0.6446981092837950  0.5013314007252113  0.1461854296756748
  0.3533454524203123  0.5003218298485053  0.8540658257743138
  0.5009458431018322  0.8557259803240377  0.1464025083482662
  0.4988936895016461  0.1454816101493614  0.8542411908969242
  0.1439066040232974  0.6456273480038813  0.1458887932616856
  0.8533018975652443  0.3531190821389564  0.8537205289527277
  0.3533362696759044  0.5003295227375527  0.1459309978252088
  0.6446780428413632  0.5012941819326739  0.8538146039619992
  0.1433707284414771  0.4986712908717808  0.3538190157454232
  0.8530247256374772  0.4996846410052311  0.6459544271468957
  0.3534506606013101  0.8545275896648904  0.3542640249824776
  0.6451803680174412  0.1442410035827142  0.6463886990692043
  0.5001622099357372  0.6468496583128844  0.3537300563693552
  0.4983302811027995  0.3544081485217043  0.6458293372508891
  0.8530030360749118  0.4996629814007686  0.3540869943425899
  0.1433731628285469  0.4986914831485812  0.6461946872108834
  0.6452287631534008  0.1442769586429737  0.3535869763003238
  0.3534083544488870  0.8545070163196535  0.6457511689187447
  0.4982794102223091  0.3543716609587385  0.3541151137719342
  0.5001772677992106  0.6468687581063249  0.6462813875825573
  0.0222782174386595  0.9999306193378338  0.2499986785057252
  0.0229611237479669  0.9999971814705549  0.7499893824041187
  0.9566489027322599  0.9977069730050888  0.3338498612700921
  0.9589787306687776  0.0023307610950052  0.1661362106516271
  0.9577436507339272  0.9985257481537825  0.6661006343308802
  0.9592395790395150  0.0015529084589818  0.8338622184575453
 
  0.00000000E+00  0.00000000E+00  0.00000000E+00
  0.00000000E+00  0.00000000E+00  0.00000000E+00
  0.00000000E+00  0.00000000E+00  0.00000000E+00
  0.00000000E+00  0.00000000E+00  0.00000000E+00
  0.00000000E+00  0.00000000E+00  0.00000000E+00
  0.00000000E+00  0.00000000E+00  0.00000000E+00
  0.00000000E+00  0.00000000E+00  0.00000000E+00
  0.00000000E+00  0.00000000E+00  0.00000000E+00
  0.00000000E+00  0.00000000E+00  0.00000000E+00
  0.00000000E+00  0.00000000E+00  0.00000000E+00
  0.00000000E+00  0.00000000E+00  0.00000000E+00
  0.00000000E+00  0.00000000E+00  0.00000000E+00
  0.00000000E+00  0.00000000E+00  0.00000000E+00
  0.00000000E+00  0.00000000E+00  0.00000000E+00
  0.00000000E+00  0.00000000E+00  0.00000000E+00
  0.00000000E+00  0.00000000E+00  0.00000000E+00
  0.00000000E+00  0.00000000E+00  0.00000000E+00
  0.00000000E+00  0.00000000E+00  0.00000000E+00
  0.00000000E+00  0.00000000E+00  0.00000000E+00
  0.00000000E+00  0.00000000E+00  0.00000000E+00
  0.00000000E+00  0.00000000E+00  0.00000000E+00
  0.00000000E+00  0.00000000E+00  0.00000000E+00
  0.00000000E+00  0.00000000E+00  0.00000000E+00
  0.00000000E+00  0.00000000E+00  0.00000000E+00
  0.00000000E+00  0.00000000E+00  0.00000000E+00
  0.00000000E+00  0.00000000E+00  0.00000000E+00
  0.00000000E+00  0.00000000E+00  0.00000000E+00
  0.00000000E+00  0.00000000E+00  0.00000000E+00
  0.00000000E+00  0.00000000E+00  0.00000000E+00
  0.00000000E+00  0.00000000E+00  0.00000000E+00
  0.00000000E+00  0.00000000E+00  0.00000000E+00
  0.00000000E+00  0.00000000E+00  0.00000000E+00
  0.00000000E+00  0.00000000E+00  0.00000000E+00
  0.00000000E+00  0.00000000E+00  0.00000000E+00
  0.00000000E+00  0.00000000E+00  0.00000000E+00
  0.00000000E+00  0.00000000E+00  0.00000000E+00
  0.00000000E+00  0.00000000E+00  0.00000000E+00
  0.00000000E+00  0.00000000E+00  0.00000000E+00
  0.00000000E+00  0.00000000E+00  0.00000000E+00
  0.00000000E+00  0.00000000E+00  0.00000000E+00
  0.00000000E+00  0.00000000E+00  0.00000000E+00
  0.00000000E+00  0.00000000E+00  0.00000000E+00
  0.00000000E+00  0.00000000E+00  0.00000000E+00
  0.00000000E+00  0.00000000E+00  0.00000000E+00
  0.00000000E+00  0.00000000E+00  0.00000000E+00
  0.00000000E+00  0.00000000E+00  0.00000000E+00
  0.00000000E+00  0.00000000E+00  0.00000000E+00
  0.00000000E+00  0.00000000E+00  0.00000000E+00
  0.00000000E+00  0.00000000E+00  0.00000000E+00
  0.00000000E+00  0.00000000E+00  0.00000000E+00
  0.00000000E+00  0.00000000E+00  0.00000000E+00
  0.00000000E+00  0.00000000E+00  0.00000000E+00
  0.00000000E+00  0.00000000E+00  0.00000000E+00
  0.00000000E+00  0.00000000E+00  0.00000000E+00
  0.00000000E+00  0.00000000E+00  0.00000000E+00
  0.00000000E+00  0.00000000E+00  0.00000000E+00
  0.00000000E+00  0.00000000E+00  0.00000000E+00
  0.00000000E+00  0.00000000E+00  0.00000000E+00
  0.00000000E+00  0.00000000E+00  0.00000000E+00
  0.00000000E+00  0.00000000E+00  0.00000000E+00
  0.00000000E+00  0.00000000E+00  0.00000000E+00
  0.00000000E+00  0.00000000E+00  0.00000000E+00
  0.00000000E+00  0.00000000E+00  0.00000000E+00
  0.00000000E+00  0.00000000E+00  0.00000000E+00
