Beryl+water, scan_3                     
   1.00000000000000     
     9.2080001830999993    0.0000000000000000    0.0000000000000000
    -4.6040000915999997    7.9743620766000003    0.0000000000000000
     0.0000000000000000    0.0000000000000000    9.1879997252999992
   Be   Al   Si   O    H 
     6     4    12    38     4
Direct
  0.4975829083789313 -0.0000061416284076  0.2500019172869571
  0.4975363392614324 -0.0000063474740831  0.7499960062651347
  0.9987653253313828  0.5004023288819741  0.2499900838049021
  0.9987471519459209  0.5003864966246306  0.7500571806576819
  0.4983625952512789  0.4996153297070732  0.2500134218165459
  0.4983603815304022  0.4996052948162898  0.7499405434692776
  0.3315271291905270  0.6666589675519272  0.2500488702721760
  0.6648531467850064  0.3333543507929953  0.7499801152193014
  0.6648896365901348  0.3333585239753437  0.2499497355829327
  0.3315069949456638  0.6666316392274487  0.7500127286507041
  0.3864917440231912  0.1157480034490637  0.0000022610015291
  0.6106709142431322  0.8844183812355298 -0.0000033363644435
  0.8839681357263178  0.2731119945739455 -0.0000089955023293
  0.1146043738233799  0.7282854119808942  0.0000490366870735
  0.7268239419845691  0.6119901579798454 -0.0000411882654304
  0.2719125556770848  0.3884078738801103  0.0000093041243440
  0.1148198630282940  0.3880060791804364  0.5000501493179770
  0.8834934447987133  0.6115887535000043  0.4999914759027625
  0.2707287493638323  0.8842532594207732  0.5000011502109234
  0.7262551174532135  0.1155682647602589  0.4999920963968209
  0.6108629411704526  0.7268882415442021  0.5000195635039330
  0.3863077400894667  0.2717099423004502  0.4999673511208358
  0.3096402896454015  0.2370532289876894  0.0000377462258114
  0.6931475059236508  0.7670953915860056  0.9999309464994012
  0.7689193930049901  0.0721644899052950  0.0000274344401716
  0.2357901548145212  0.9263533976153836  0.0000520042302653
  0.9251815327408808  0.6902179566558521  0.0000203999500607
  0.0726589649799301  0.3082207211603980 -0.0000035188181762
  0.2349448687878797  0.3097830754942938  0.4999810369338190
  0.7644413976257051  0.6917938881378561  0.5000008628681717
  0.0725852346987495  0.7629279325806593  0.4999682077800786
  0.9260594776430534  0.2328753054237717  0.5000645648125016
  0.6967575954795819  0.9278311044876798  0.5000005127054734
  0.3094112100134916  0.0736454881664528  0.4999705143931483
  0.4989313195438387  0.1454772920336055  0.1457497074893236
  0.5009391546451892  0.8557968961963974  0.8536116697665188
  0.8533394225750519  0.3531302600354544  0.1462487867195449
  0.1439311505227888  0.6455913224780310  0.8541973429773565
  0.6447185184528434  0.5013213666782118  0.1461433913363888
  0.3534186021291204  0.5003502496516320  0.8540837663337925
  0.5009804637287613  0.8557523696518849  0.1464145875506121
  0.4989143018540869  0.1455132111043342  0.8542301729793647
  0.1438972143093713  0.6455827876350202  0.1459093635700069
  0.8532814997022998  0.3530422156382361  0.8537050616558178
  0.3533423407076870  0.5003339682838636  0.1459542198275301
  0.6447840907523276  0.5013906393254889  0.8537257139716468
  0.1434046645005399  0.4986805107763563  0.3538678166304529
  0.8530748319773310  0.4996570683839209  0.6459177991567401
  0.3534551327334953  0.8545391359522235  0.3542540608694452
  0.6451458762249498  0.1442002982429913  0.6463742174672582
  0.5002250440258147  0.6468985982837944  0.3537529631706608
  0.4983473499663115  0.3544162010171864  0.6458166592521846
  0.8529897583289581  0.4996631991298771  0.3540517731086764
  0.1433759895264926  0.4985951814818240  0.6462872086956167
  0.6452378991081860  0.1442489194902424  0.3535837761208134
  0.3533996100393884  0.8544905756407968  0.6457601176984191
  0.4983021003841228  0.3544043241144426  0.3541060371940641
  0.5002034832105708  0.6469367950920067  0.6462821785409999
  0.0220087356943065 -0.0000354435975185  0.2499977481788465
  0.0228829850497229 -0.0000263341755513  0.7499737523014408
  0.9563392583415209  0.9976482512641685  0.3338599506187416
  0.9587326879708687  0.0023848835653169  0.1661364754049557
  0.9576353139681618  0.9984925272323223  0.6660916479717715
  0.9591799478939814  0.0015839872033232  0.8338419392027496
 
  0.00000000E+00  0.00000000E+00  0.00000000E+00
  0.00000000E+00  0.00000000E+00  0.00000000E+00
  0.00000000E+00  0.00000000E+00  0.00000000E+00
  0.00000000E+00  0.00000000E+00  0.00000000E+00
  0.00000000E+00  0.00000000E+00  0.00000000E+00
  0.00000000E+00  0.00000000E+00  0.00000000E+00
  0.00000000E+00  0.00000000E+00  0.00000000E+00
  0.00000000E+00  0.00000000E+00  0.00000000E+00
  0.00000000E+00  0.00000000E+00  0.00000000E+00
  0.00000000E+00  0.00000000E+00  0.00000000E+00
  0.00000000E+00  0.00000000E+00  0.00000000E+00
  0.00000000E+00  0.00000000E+00  0.00000000E+00
  0.00000000E+00  0.00000000E+00  0.00000000E+00
  0.00000000E+00  0.00000000E+00  0.00000000E+00
  0.00000000E+00  0.00000000E+00  0.00000000E+00
  0.00000000E+00  0.00000000E+00  0.00000000E+00
  0.00000000E+00  0.00000000E+00  0.00000000E+00
  0.00000000E+00  0.00000000E+00  0.00000000E+00
  0.00000000E+00  0.00000000E+00  0.00000000E+00
  0.00000000E+00  0.00000000E+00  0.00000000E+00
  0.00000000E+00  0.00000000E+00  0.00000000E+00
  0.00000000E+00  0.00000000E+00  0.00000000E+00
  0.00000000E+00  0.00000000E+00  0.00000000E+00
  0.00000000E+00  0.00000000E+00  0.00000000E+00
  0.00000000E+00  0.00000000E+00  0.00000000E+00
  0.00000000E+00  0.00000000E+00  0.00000000E+00
  0.00000000E+00  0.00000000E+00  0.00000000E+00
  0.00000000E+00  0.00000000E+00  0.00000000E+00
  0.00000000E+00  0.00000000E+00  0.00000000E+00
  0.00000000E+00  0.00000000E+00  0.00000000E+00
  0.00000000E+00  0.00000000E+00  0.00000000E+00
  0.00000000E+00  0.00000000E+00  0.00000000E+00
  0.00000000E+00  0.00000000E+00  0.00000000E+00
  0.00000000E+00  0.00000000E+00  0.00000000E+00
  0.00000000E+00  0.00000000E+00  0.00000000E+00
  0.00000000E+00  0.00000000E+00  0.00000000E+00
  0.00000000E+00  0.00000000E+00  0.00000000E+00
  0.00000000E+00  0.00000000E+00  0.00000000E+00
  0.00000000E+00  0.00000000E+00  0.00000000E+00
  0.00000000E+00  0.00000000E+00  0.00000000E+00
  0.00000000E+00  0.00000000E+00  0.00000000E+00
  0.00000000E+00  0.00000000E+00  0.00000000E+00
  0.00000000E+00  0.00000000E+00  0.00000000E+00
  0.00000000E+00  0.00000000E+00  0.00000000E+00
  0.00000000E+00  0.00000000E+00  0.00000000E+00
  0.00000000E+00  0.00000000E+00  0.00000000E+00
  0.00000000E+00  0.00000000E+00  0.00000000E+00
  0.00000000E+00  0.00000000E+00  0.00000000E+00
  0.00000000E+00  0.00000000E+00  0.00000000E+00
  0.00000000E+00  0.00000000E+00  0.00000000E+00
  0.00000000E+00  0.00000000E+00  0.00000000E+00
  0.00000000E+00  0.00000000E+00  0.00000000E+00
  0.00000000E+00  0.00000000E+00  0.00000000E+00
  0.00000000E+00  0.00000000E+00  0.00000000E+00
  0.00000000E+00  0.00000000E+00  0.00000000E+00
  0.00000000E+00  0.00000000E+00  0.00000000E+00
  0.00000000E+00  0.00000000E+00  0.00000000E+00
  0.00000000E+00  0.00000000E+00  0.00000000E+00
  0.00000000E+00  0.00000000E+00  0.00000000E+00
  0.00000000E+00  0.00000000E+00  0.00000000E+00
  0.00000000E+00  0.00000000E+00  0.00000000E+00
  0.00000000E+00  0.00000000E+00  0.00000000E+00
  0.00000000E+00  0.00000000E+00  0.00000000E+00
  0.00000000E+00  0.00000000E+00  0.00000000E+00
