general:
 System = Beryl
 ENCUT = 500
 ISMEAR = -5
 SIGMA = 0.025
 PREC = Acc
 EDIFF = -.1E-05
 LREAL = Auto
 LORBIT=11
 NELMIN = 4
