K-Points, Gamma centered grid
 0
Gamma
 5 5 5
 0  0  0
