Beryl+water, after MD_2                 
   1.00000000000000     
     9.2080001830999993    0.0000000000000000    0.0000000000000000
    -4.6040000915999997    7.9743620766000003    0.0000000000000000
     0.0000000000000000    0.0000000000000000    9.1879997252999992
   Be   Al   Si   O    H 
     6     4    12    38     4
Direct
  0.5019395232120581  0.9996747421010667  0.2499634640904002
  0.4982870993035294  0.0004456524261534  0.7500582450006155
  0.9993959485046203  0.4996978840541856  0.2500000074744264
  0.0008666443346831  0.5004332319692386  0.7500000224232721
  0.5019394630836084  0.5022646608486563  0.2500365508584526
  0.4982870391750797  0.4978413266150408  0.7499417998459288
  0.3332011412480809  0.6666004404174578  0.2500000074744264
  0.6670934158482787  0.3335466477920658  0.7500000224232721
  0.6667713991581357  0.3333856394470014  0.2500000074744264
  0.3334571118838565  0.6667284257353631  0.7500000224232721
  0.3878980586531893  0.1155990377419391  0.0009771843981843
  0.6123271270850038  0.8844845405068544  0.9990393959330381
  0.8844507607144640  0.2724296725129198  0.0000955121055998
  0.1157775604393544  0.7276481406534622  0.9998954173761588
  0.7280092088739496  0.6121968671101592  0.9989296533697277
  0.2722212885774467  0.3878884708047362  0.0010575685781968
  0.1157774608128784  0.3881295197940006  0.5001045975726869
  0.8844514873503391  0.6120218615349635  0.4999045028432459
  0.2722204691558104  0.8843333513336458  0.4989424463706490
  0.7280100282955859  0.1158133085537523  0.5010703615791180
  0.6123258741088277  0.7278419667856910  0.5009606190158076
  0.3878986846199592  0.2722998870358091  0.4990228305506544
  0.3059210057613919  0.2331535614178642  0.0077110409695100
  0.6942909809280006  0.7669194506597903  0.9923443371665358
  0.7653912712897715  0.0733755594499691  0.9962988618845092
  0.2348686890364972  0.9266901711894734  0.0037480369480093
  0.9267727382065373  0.6912154351640299  0.9963526299029641
  0.0734396669755898  0.3088244087018012  0.0036218710751781
  0.2348683045065356  0.3081774971261075  0.4962519780008364
  0.7653916558197402  0.6920163518834399  0.5037011530643365
  0.0734404272844190  0.7646153736423164  0.4963781438736679
  0.9267730639098487  0.2355568069966803  0.5036473850458816
  0.6942906051491330  0.9273716543811175  0.5076556777823099
  0.3059213815402595  0.0727669395533198  0.4922889739793355
  0.5005075846488808  0.1449841783675652  0.1464251696792216
  0.4997212170740606  0.8551183855524459  0.8535868065714776
  0.8537219815903394  0.3538281216018224  0.1457692136321677
  0.1465170219211521  0.6462866617954139  0.8542109010475343
  0.6470598413955797  0.5029368212589587  0.1458042844537520
  0.3531668719116000  0.4971311834535694  0.8541741016349971
  0.5023724379356880  0.8544823811236488  0.1456933272418600
  0.4978289528525524  0.1456252319528701  0.8542992147407633
  0.1443903915687154  0.6456926291096813  0.1463162934631235
  0.8558938635949705  0.3544027299871993  0.8536588996780388
  0.3556883978626890  0.5012361371685473  0.1460958122249083
  0.6445766727484873  0.4989169877831204  0.8538536088954609
  0.1443902757464267  0.4986975489469464  0.3536837214857221
  0.8558928934051114  0.5014909664425380  0.6463411451685055
  0.3556894369757832  0.8544529235715671  0.3539042027239374
  0.6445756336353859  0.1456586414106270  0.6461464359510833
  0.5023726006570159  0.6478899122193359  0.3543066877069857
  0.4978287901312244  0.3522034848150725  0.6457008301057809
  0.8537210114004803  0.4998936928232771  0.3542308013166785
  0.1465169060988634  0.5002301466136712  0.6457891437990100
  0.6470588022824784  0.1441219765818816  0.3541957304950937
  0.3531679110246942  0.8560363513354572  0.6458259432115472
  0.5005074219275528  0.3555231701967127  0.3535748452696244
  0.4997213797953886  0.6446026869289035  0.6464132382750667
  0.9724774401558384  0.9862387200911474  0.2499999999646292
  0.0276231732378109  0.0138115866056894  0.7499999999646292
  0.0471588240264957  0.0137042360693149  0.3332289103004982
  0.0471588240632378  0.0334545879845083  0.1667710896287599
  0.9529447777885658  0.9667592106838649  0.8332496748347681
  0.9529447777518236  0.9861855670773816  0.6667503250944903
 
  0.00000000E+00  0.00000000E+00  0.00000000E+00
  0.00000000E+00  0.00000000E+00  0.00000000E+00
  0.00000000E+00  0.00000000E+00  0.00000000E+00
  0.00000000E+00  0.00000000E+00  0.00000000E+00
  0.00000000E+00  0.00000000E+00  0.00000000E+00
  0.00000000E+00  0.00000000E+00  0.00000000E+00
  0.00000000E+00  0.00000000E+00  0.00000000E+00
  0.00000000E+00  0.00000000E+00  0.00000000E+00
  0.00000000E+00  0.00000000E+00  0.00000000E+00
  0.00000000E+00  0.00000000E+00  0.00000000E+00
  0.00000000E+00  0.00000000E+00  0.00000000E+00
  0.00000000E+00  0.00000000E+00  0.00000000E+00
  0.00000000E+00  0.00000000E+00  0.00000000E+00
  0.00000000E+00  0.00000000E+00  0.00000000E+00
  0.00000000E+00  0.00000000E+00  0.00000000E+00
  0.00000000E+00  0.00000000E+00  0.00000000E+00
  0.00000000E+00  0.00000000E+00  0.00000000E+00
  0.00000000E+00  0.00000000E+00  0.00000000E+00
  0.00000000E+00  0.00000000E+00  0.00000000E+00
  0.00000000E+00  0.00000000E+00  0.00000000E+00
  0.00000000E+00  0.00000000E+00  0.00000000E+00
  0.00000000E+00  0.00000000E+00  0.00000000E+00
  0.00000000E+00  0.00000000E+00  0.00000000E+00
  0.00000000E+00  0.00000000E+00  0.00000000E+00
  0.00000000E+00  0.00000000E+00  0.00000000E+00
  0.00000000E+00  0.00000000E+00  0.00000000E+00
  0.00000000E+00  0.00000000E+00  0.00000000E+00
  0.00000000E+00  0.00000000E+00  0.00000000E+00
  0.00000000E+00  0.00000000E+00  0.00000000E+00
  0.00000000E+00  0.00000000E+00  0.00000000E+00
  0.00000000E+00  0.00000000E+00  0.00000000E+00
  0.00000000E+00  0.00000000E+00  0.00000000E+00
  0.00000000E+00  0.00000000E+00  0.00000000E+00
  0.00000000E+00  0.00000000E+00  0.00000000E+00
  0.00000000E+00  0.00000000E+00  0.00000000E+00
  0.00000000E+00  0.00000000E+00  0.00000000E+00
  0.00000000E+00  0.00000000E+00  0.00000000E+00
  0.00000000E+00  0.00000000E+00  0.00000000E+00
  0.00000000E+00  0.00000000E+00  0.00000000E+00
  0.00000000E+00  0.00000000E+00  0.00000000E+00
  0.00000000E+00  0.00000000E+00  0.00000000E+00
  0.00000000E+00  0.00000000E+00  0.00000000E+00
  0.00000000E+00  0.00000000E+00  0.00000000E+00
  0.00000000E+00  0.00000000E+00  0.00000000E+00
  0.00000000E+00  0.00000000E+00  0.00000000E+00
  0.00000000E+00  0.00000000E+00  0.00000000E+00
  0.00000000E+00  0.00000000E+00  0.00000000E+00
  0.00000000E+00  0.00000000E+00  0.00000000E+00
  0.00000000E+00  0.00000000E+00  0.00000000E+00
  0.00000000E+00  0.00000000E+00  0.00000000E+00
  0.00000000E+00  0.00000000E+00  0.00000000E+00
  0.00000000E+00  0.00000000E+00  0.00000000E+00
  0.00000000E+00  0.00000000E+00  0.00000000E+00
  0.00000000E+00  0.00000000E+00  0.00000000E+00
  0.00000000E+00  0.00000000E+00  0.00000000E+00
  0.00000000E+00  0.00000000E+00  0.00000000E+00
  0.00000000E+00  0.00000000E+00  0.00000000E+00
  0.00000000E+00  0.00000000E+00  0.00000000E+00
  0.00000000E+00  0.00000000E+00  0.00000000E+00
  0.00000000E+00  0.00000000E+00  0.00000000E+00
  0.00000000E+00  0.00000000E+00  0.00000000E+00
  0.00000000E+00  0.00000000E+00  0.00000000E+00
  0.00000000E+00  0.00000000E+00  0.00000000E+00
  0.00000000E+00  0.00000000E+00  0.00000000E+00
