general:
 System = Beryl
 ENCUT = 500
 ISMEAR = 0
 SIGMA = 0.025
 PREC = Acc
 EDIFF = -.1E-05
 EDIFFG = -.1E-02
 LREAL = Auto
 LORBIT=11
 NELMIN = 3
dynamic:
 IBRION = 2
 POTIM = 0.5
 ISIF = 2
 NSW = 200
