Beryl+water, after MD_2                 
   1.00000000000000     
     9.2080001830999993    0.0000000000000000    0.0000000000000000
    -4.6040000915999997    7.9743620766000003    0.0000000000000000
     0.0000000000000000    0.0000000000000000    9.1879997252999992
   Be   Al   Si   O    H 
     6     4    12    38     4
Direct
  0.5019236176959339  0.9996847617367884  0.2499870691815053
  0.4982984377355129  0.0004389149382940  0.7500783247675687
  0.9994105113492009  0.4997051654764795  0.2500000074744264
  0.0008531263193037  0.5004264729615513  0.7500000224232721
  0.5019235575674841  0.5022387356968168  0.2500129457673473
  0.4982983776070631  0.4978594025348833  0.7499217200789755
  0.3332044436033548  0.6666020915950943  0.2500000074744264
  0.6670893749988122  0.3335446273673325  0.7500000224232721
  0.6667774370005199  0.3333886583681900  0.2500000074744264
  0.3334551974704298  0.6667274685286458  0.7500000224232721
  0.3879031727370004  0.1155978607440255  0.0009812147356685
  0.6123204724916740  0.8844784744503361  0.9990539402300000
  0.8844552417559096  0.2724136851140496  0.0001083857777661
  0.1157744255045556  0.7276502801555909  0.9998910123335601
  0.7280069785633936  0.6121911384284465  0.9989181898279808
  0.2722220855686977  0.3878816310802924  0.0010387966352914
  0.1157743258780797  0.3881242453570726  0.5001090026152856
  0.8844559683917846  0.6120423299752716  0.4998916291710799
  0.2722212661470614  0.8843409880493476  0.4989612183135544
  0.7280077979850299  0.1158168069249086  0.5010818251208650
  0.6123192195154978  0.7278413782488798  0.5009460747188457
  0.3879037987037704  0.2723061781175337  0.4990188002131705
  0.3059289933416111  0.2331525640258659  0.0077135488453820
  0.6942741171582423  0.7669053547545069  0.9923672915769858
  0.7654012993921987  0.0733602087580226  0.9962399308812083
  0.2348752737143149  0.9266880351606492  0.0037542099375527
  0.9267764148575213  0.6912463595242474  0.9963969525522060
  0.0734376888672381  0.3087871182065903  0.0035220133444587
  0.2348748891843533  0.3081862178327490  0.4962458050112931
  0.7654016839221675  0.6920417306778077  0.5037600840676374
  0.0734384491760673  0.7646506860291770  0.4964780016043870
  0.9267767405608327  0.2355295592874452  0.5036030623966398
  0.6942737413793747  0.9273688865166437  0.5076327233718599
  0.3059293691204787  0.0727759245255369  0.4922864661034638
  0.5005087331829488  0.1449798541519393  0.1464304354809307
  0.4996961024346169  0.8550903700696394  0.8536097331407708
  0.8537539604774401  0.3537306397989934  0.1458490532976967
  0.1465161230524464  0.6462987582383243  0.8542010026743471
  0.6470107630773793  0.5028622870191179  0.1457543980770791
  0.3531833630253938  0.4971351184346383  0.8541655021477680
  0.5023903268273991  0.8545096854623324  0.1457197749788283
  0.4978280822358319  0.1456231483805435  0.8543019675583770
  0.1443969698347663  0.6456762836371375  0.1462946738603662
  0.8558701294517311  0.3544709670681195  0.8537395235772819
  0.3556723231326692  0.5012277843503096  0.1460831627738644
  0.6446167202298584  0.4989593410238842  0.8538130087077237
  0.1443968540124776  0.4987204726855403  0.3537053410884793
  0.8558691592618720  0.5013989952183789  0.6462605212692624
  0.3556733622457634  0.8544452016597798  0.3539168521749809
  0.6446156811167570  0.1456563356512347  0.6461870361388206
  0.5023904895487271  0.6478804967723691  0.3542802399700172
  0.4978279195145039  0.3522046977706788  0.6456980772881673
  0.8537529902875810  0.5000231535132055  0.3541509616511490
  0.1465160072301577  0.5002171513020554  0.6457990421721972
  0.6470097239642779  0.1441474325035211  0.3542456168717666
  0.3531844021384881  0.8560489074681804  0.6458345426987763
  0.5005085704616208  0.3555286429463999  0.3535695794679151
  0.4996962651559448  0.6446055877722676  0.6463903117057734
  0.9724757495663066  0.9862378747963796  0.2499999999646292
  0.0276230852601006  0.0138115426168342  0.7499999999646292
  0.0471580038073326  0.0138710535777487  0.3332487049512069
  0.0471580038440748  0.0332869502569115  0.1667512949780513
  0.9529426702245772  0.9669211250651171  0.8332692305829135
  0.9529426701878351  0.9860215451321400  0.6667307693463449
 
  0.00000000E+00  0.00000000E+00  0.00000000E+00
  0.00000000E+00  0.00000000E+00  0.00000000E+00
  0.00000000E+00  0.00000000E+00  0.00000000E+00
  0.00000000E+00  0.00000000E+00  0.00000000E+00
  0.00000000E+00  0.00000000E+00  0.00000000E+00
  0.00000000E+00  0.00000000E+00  0.00000000E+00
  0.00000000E+00  0.00000000E+00  0.00000000E+00
  0.00000000E+00  0.00000000E+00  0.00000000E+00
  0.00000000E+00  0.00000000E+00  0.00000000E+00
  0.00000000E+00  0.00000000E+00  0.00000000E+00
  0.00000000E+00  0.00000000E+00  0.00000000E+00
  0.00000000E+00  0.00000000E+00  0.00000000E+00
  0.00000000E+00  0.00000000E+00  0.00000000E+00
  0.00000000E+00  0.00000000E+00  0.00000000E+00
  0.00000000E+00  0.00000000E+00  0.00000000E+00
  0.00000000E+00  0.00000000E+00  0.00000000E+00
  0.00000000E+00  0.00000000E+00  0.00000000E+00
  0.00000000E+00  0.00000000E+00  0.00000000E+00
  0.00000000E+00  0.00000000E+00  0.00000000E+00
  0.00000000E+00  0.00000000E+00  0.00000000E+00
  0.00000000E+00  0.00000000E+00  0.00000000E+00
  0.00000000E+00  0.00000000E+00  0.00000000E+00
  0.00000000E+00  0.00000000E+00  0.00000000E+00
  0.00000000E+00  0.00000000E+00  0.00000000E+00
  0.00000000E+00  0.00000000E+00  0.00000000E+00
  0.00000000E+00  0.00000000E+00  0.00000000E+00
  0.00000000E+00  0.00000000E+00  0.00000000E+00
  0.00000000E+00  0.00000000E+00  0.00000000E+00
  0.00000000E+00  0.00000000E+00  0.00000000E+00
  0.00000000E+00  0.00000000E+00  0.00000000E+00
  0.00000000E+00  0.00000000E+00  0.00000000E+00
  0.00000000E+00  0.00000000E+00  0.00000000E+00
  0.00000000E+00  0.00000000E+00  0.00000000E+00
  0.00000000E+00  0.00000000E+00  0.00000000E+00
  0.00000000E+00  0.00000000E+00  0.00000000E+00
  0.00000000E+00  0.00000000E+00  0.00000000E+00
  0.00000000E+00  0.00000000E+00  0.00000000E+00
  0.00000000E+00  0.00000000E+00  0.00000000E+00
  0.00000000E+00  0.00000000E+00  0.00000000E+00
  0.00000000E+00  0.00000000E+00  0.00000000E+00
  0.00000000E+00  0.00000000E+00  0.00000000E+00
  0.00000000E+00  0.00000000E+00  0.00000000E+00
  0.00000000E+00  0.00000000E+00  0.00000000E+00
  0.00000000E+00  0.00000000E+00  0.00000000E+00
  0.00000000E+00  0.00000000E+00  0.00000000E+00
  0.00000000E+00  0.00000000E+00  0.00000000E+00
  0.00000000E+00  0.00000000E+00  0.00000000E+00
  0.00000000E+00  0.00000000E+00  0.00000000E+00
  0.00000000E+00  0.00000000E+00  0.00000000E+00
  0.00000000E+00  0.00000000E+00  0.00000000E+00
  0.00000000E+00  0.00000000E+00  0.00000000E+00
  0.00000000E+00  0.00000000E+00  0.00000000E+00
  0.00000000E+00  0.00000000E+00  0.00000000E+00
  0.00000000E+00  0.00000000E+00  0.00000000E+00
  0.00000000E+00  0.00000000E+00  0.00000000E+00
  0.00000000E+00  0.00000000E+00  0.00000000E+00
  0.00000000E+00  0.00000000E+00  0.00000000E+00
  0.00000000E+00  0.00000000E+00  0.00000000E+00
  0.00000000E+00  0.00000000E+00  0.00000000E+00
  0.00000000E+00  0.00000000E+00  0.00000000E+00
  0.00000000E+00  0.00000000E+00  0.00000000E+00
  0.00000000E+00  0.00000000E+00  0.00000000E+00
  0.00000000E+00  0.00000000E+00  0.00000000E+00
  0.00000000E+00  0.00000000E+00  0.00000000E+00
