Beryl+water, after MD_2                 
   1.00000000000000     
     9.2080001830999993    0.0000000000000000    0.0000000000000000
    -4.6040000915999997    7.9743620766000003    0.0000000000000000
     0.0000000000000000    0.0000000000000000    9.1879997252999992
   Be   Al   Si   O    H 
     6     4    12    37     2
Direct
  0.5022240494769696  0.0002292039017389  0.2499927834333714
  0.5000556746872268  0.0004893290694290  0.7500171737768777
  0.0003878255643404  0.5001938225840608  0.2500000074744264
  0.0009524213816101  0.5004761204927015  0.7500000224232721
  0.5022239893485199  0.5019947253128885  0.2500072315154815
  0.5000556145587770  0.4995662253554553  0.7499828710696665
  0.3342841118606653  0.6671419257237602  0.2500000074744264
  0.6676061151487329  0.3338029974422929  0.7500000224232721
  0.6677794241558052  0.3338896519458255  0.2500000074744264
  0.3343185421014559  0.6671591408441474  0.7500000224232721
  0.3885284424667173  0.1156501409954195  0.0006733173335580
  0.6130006571877529  0.8845519504482461  0.9993556640071495
  0.8848338687387418  0.2722281969399440  0.0000386949997965
  0.1159558978108730  0.7276105791864477  0.9998887183776908
  0.7283799484219906  0.6124225355773327  0.9992753598731078
  0.2728254782366788  0.3881776735935593  0.0006972543584263
  0.1159557981843971  0.3883454186325264  0.5001112965711549
  0.8848345953746168  0.6126064451321951  0.4999613199490490
  0.2728246588150425  0.8846483382040556  0.4993027605904192
  0.7283807678436269  0.1159583796346270  0.5007246550757379
  0.6129994042115767  0.7284480869470490  0.5006443509416962
  0.3885290684334873  0.2728791675958491  0.4993266976152877
  0.3059549066591594  0.2328751585879530  0.0039453726199836
  0.6912035603669517  0.7642867542194188  0.9956368174290197
  0.7648499131233608  0.0737091653326114  0.9967619532971901
  0.2341529385006625  0.9271003168810352  0.0018717364868351
  0.9270969232008636  0.6912618259852844  0.9968461295931643
  0.0738644754260180  0.3082593382429388  0.0004526146643448
  0.2341525539707008  0.3070516008987038  0.4981282784620104
  0.7648502976533225  0.6911413878343735  0.5032380616516556
  0.0738652357348473  0.7656052525516153  0.4995474002845082
  0.9270972489041750  0.2358346011697431  0.5031538853556814
  0.6912031845880842  0.9269169302604560  0.5043631975198261
  0.3059552824380269  0.0730792432809981  0.4960546423288623
  0.5001332308085775  0.1452623593466172  0.1464596509927194
  0.5003754370372762  0.8551584788470421  0.8537822726439063
  0.8552710979381787  0.3539137916313444  0.1461432886624090
  0.1466636913905566  0.6468266769157129  0.8537932867747752
  0.6471093721288066  0.5017073652693694  0.1457184866477137
  0.3539459492227157  0.4977696324905756  0.8539782123014926
  0.5020819149275768  0.8550401887670673  0.1457222122654166
  0.4981539501843560  0.1453859138938618  0.8538861207270603
  0.1454459658759441  0.6461289648990871  0.1460955827980097
  0.8560632687318012  0.3547281125362595  0.8539197812617328
  0.3549677708645368  0.4997531501173674  0.1465036170071285
  0.6455820025229735  0.4995509265523251  0.8537994228133688
  0.1454458500536554  0.4993167874647828  0.3539044321508357
  0.8560622985419420  0.5013349890303143  0.6460802635848114
  0.3549688099776310  0.8552152836245950  0.3534963979417173
  0.6455809634098721  0.1460300324158956  0.6462006220331754
  0.5020820776489048  0.6470415815678053  0.3542778026834293
  0.4981537874630281  0.3527678002058919  0.6461139241194840
  0.8552701277483196  0.5013571391416078  0.3538567262864363
  0.1466635755682679  0.4998368009627550  0.6462067580717691
  0.6471083330157053  0.1454009633046900  0.3542815283011324
  0.3539469883358099  0.8561769796095655  0.6460218325450516
  0.5001330680872496  0.3548706353773438  0.3535403639561334
  0.5003755997586041  0.6452168135975226  0.6462177722026380
  0.9668923363873098  0.9834461682068817  0.2499999999646292
  0.0410552958040182  0.0192816189545310  0.3341239180441619
  0.0410552958407604  0.0217736768768076  0.1658760818850961
 
  0.00000000E+00  0.00000000E+00  0.00000000E+00
  0.00000000E+00  0.00000000E+00  0.00000000E+00
  0.00000000E+00  0.00000000E+00  0.00000000E+00
  0.00000000E+00  0.00000000E+00  0.00000000E+00
  0.00000000E+00  0.00000000E+00  0.00000000E+00
  0.00000000E+00  0.00000000E+00  0.00000000E+00
  0.00000000E+00  0.00000000E+00  0.00000000E+00
  0.00000000E+00  0.00000000E+00  0.00000000E+00
  0.00000000E+00  0.00000000E+00  0.00000000E+00
  0.00000000E+00  0.00000000E+00  0.00000000E+00
  0.00000000E+00  0.00000000E+00  0.00000000E+00
  0.00000000E+00  0.00000000E+00  0.00000000E+00
  0.00000000E+00  0.00000000E+00  0.00000000E+00
  0.00000000E+00  0.00000000E+00  0.00000000E+00
  0.00000000E+00  0.00000000E+00  0.00000000E+00
  0.00000000E+00  0.00000000E+00  0.00000000E+00
  0.00000000E+00  0.00000000E+00  0.00000000E+00
  0.00000000E+00  0.00000000E+00  0.00000000E+00
  0.00000000E+00  0.00000000E+00  0.00000000E+00
  0.00000000E+00  0.00000000E+00  0.00000000E+00
  0.00000000E+00  0.00000000E+00  0.00000000E+00
  0.00000000E+00  0.00000000E+00  0.00000000E+00
  0.00000000E+00  0.00000000E+00  0.00000000E+00
  0.00000000E+00  0.00000000E+00  0.00000000E+00
  0.00000000E+00  0.00000000E+00  0.00000000E+00
  0.00000000E+00  0.00000000E+00  0.00000000E+00
  0.00000000E+00  0.00000000E+00  0.00000000E+00
  0.00000000E+00  0.00000000E+00  0.00000000E+00
  0.00000000E+00  0.00000000E+00  0.00000000E+00
  0.00000000E+00  0.00000000E+00  0.00000000E+00
  0.00000000E+00  0.00000000E+00  0.00000000E+00
  0.00000000E+00  0.00000000E+00  0.00000000E+00
  0.00000000E+00  0.00000000E+00  0.00000000E+00
  0.00000000E+00  0.00000000E+00  0.00000000E+00
  0.00000000E+00  0.00000000E+00  0.00000000E+00
  0.00000000E+00  0.00000000E+00  0.00000000E+00
  0.00000000E+00  0.00000000E+00  0.00000000E+00
  0.00000000E+00  0.00000000E+00  0.00000000E+00
  0.00000000E+00  0.00000000E+00  0.00000000E+00
  0.00000000E+00  0.00000000E+00  0.00000000E+00
  0.00000000E+00  0.00000000E+00  0.00000000E+00
  0.00000000E+00  0.00000000E+00  0.00000000E+00
  0.00000000E+00  0.00000000E+00  0.00000000E+00
  0.00000000E+00  0.00000000E+00  0.00000000E+00
  0.00000000E+00  0.00000000E+00  0.00000000E+00
  0.00000000E+00  0.00000000E+00  0.00000000E+00
  0.00000000E+00  0.00000000E+00  0.00000000E+00
  0.00000000E+00  0.00000000E+00  0.00000000E+00
  0.00000000E+00  0.00000000E+00  0.00000000E+00
  0.00000000E+00  0.00000000E+00  0.00000000E+00
  0.00000000E+00  0.00000000E+00  0.00000000E+00
  0.00000000E+00  0.00000000E+00  0.00000000E+00
  0.00000000E+00  0.00000000E+00  0.00000000E+00
  0.00000000E+00  0.00000000E+00  0.00000000E+00
  0.00000000E+00  0.00000000E+00  0.00000000E+00
  0.00000000E+00  0.00000000E+00  0.00000000E+00
  0.00000000E+00  0.00000000E+00  0.00000000E+00
  0.00000000E+00  0.00000000E+00  0.00000000E+00
  0.00000000E+00  0.00000000E+00  0.00000000E+00
  0.00000000E+00  0.00000000E+00  0.00000000E+00
  0.00000000E+00  0.00000000E+00  0.00000000E+00
