Beryl+water, after MD_2                 
   1.00000000000000     
     9.2080001830999993    0.0000000000000000    0.0000000000000000
    -4.6040000915999997    7.9743620766000003    0.0000000000000000
     0.0000000000000000    0.0000000000000000    9.1879997252999992
   Be   Al   Si   O    H 
     6     4    12    37     2
Direct
  0.5022247490531854  0.0002284515176896  0.2499933921506382
  0.5000560682069847  0.0004894791513965  0.7500174452514419
  0.0003863309224587  0.5001930752631191  0.2500000074744264
  0.0009530295717107  0.5004764245877521  0.7500000224232721
  0.5022246889247356  0.5019961772731463  0.2500066227982144
  0.5000560080785349  0.4995664687932457  0.7499825995951024
  0.3342837775735208  0.6671417585801878  0.2500000074744264
  0.6676063721595379  0.3338031259476954  0.7500000224232721
  0.6677784814732405  0.3338891806045431  0.2500000074744264
  0.3343192643672954  0.6671595019770645  0.7500000224232721
  0.3885288033448751  0.1156504655566572  0.0006740044446560
  0.6130002935764740  0.8845507132354886  0.9993553942789548
  0.8848325818709747  0.2722271435165344  0.0000380366680076
  0.1159568426621685  0.7276104855593162  0.9998886386599672
  0.7283805967760665  0.6124220530653834  0.9992749747683469
  0.2728247563917508  0.3881774321657854  0.0006975483241977
  0.1159567430356926  0.3883464571109538  0.5001113762888785
  0.8848333085068497  0.6126062116878378  0.4999619782808383
  0.2728239369701145  0.8846478577869010  0.4993024666246479
  0.7283814161977028  0.1159595105006593  0.5007250401804988
  0.6129990406002979  0.7284489605485260  0.5006446206698909
  0.3885294293116450  0.2728792039127697  0.4993260105041897
  0.3059548903513524  0.2328752546440847  0.0039453406082058
  0.6912039834570164  0.7642861191687941  0.9956374271726697
  0.7648484004503514  0.0737081106000575  0.9967598963274895
  0.2341530543891449  0.9271004838428256  0.0018718378041591
  0.9270978074029077  0.6912619266396437  0.9968459067917719
  0.0738637915209196  0.3082604411114233  0.0004530351577602
  0.2341526698591833  0.3070515498253965  0.4981281771446866
  0.7648487849803131  0.6911409298939174  0.5032401186213562
  0.0738645518297488  0.7656034657780323  0.4995469797910926
  0.9270981331062191  0.2358353847174357  0.5031541081570738
  0.6912036076781488  0.9269179884011446  0.5043625877761760
  0.3059552661302200  0.0730791309170599  0.4960546743406400
  0.5001320439323959  0.1452608810573996  0.1464609783787014
  0.5003754776868434  0.8551584238555181  0.8537819871304226
  0.8552691480660851  0.3539128515774261  0.1461423084172344
  0.1466650355517946  0.6468268271062265  0.8537933935786599
  0.6471093810510093  0.5017070480204694  0.1457179526977336
  0.3539464807896911  0.4977694999257388  0.8539785754354966
  0.5020820886745611  0.8550393625791360  0.1457221102330425
  0.4981559049770670  0.1453866640079279  0.8538877163019629
  0.1454455975545224  0.6461286803244132  0.1460958947064281
  0.8560634491824006  0.3547287815881898  0.8539195705804378
  0.3549677821979451  0.4997536136585319  0.1465036423821492
  0.6455821203002488  0.4995506039085937  0.8537991859825084
  0.1454454817322338  0.4993167037180282  0.3539041202424176
  0.8560624789925415  0.5013345004289852  0.6460804742661065
  0.3549688213110394  0.8552148314168387  0.3534963725666965
  0.6455810811871474  0.1460304728369011  0.6462008588640359
  0.5020822513958890  0.6470425815027210  0.3542779047158033
  0.4981557422557390  0.3527690048845367  0.6461123285445813
  0.8552681778762260  0.5013561293234337  0.3538577065316114
  0.1466649197295059  0.4998379949334798  0.6462066512678843
  0.6471083419379080  0.1454012894757934  0.3542820622511122
  0.3539475199027853  0.8561776437413782  0.6460214694110477
  0.5001318812110679  0.3548709267903864  0.3535390365701513
  0.5003756404081714  0.6452169092386142  0.6462180577161216
  0.9668923277619919  0.9834461638942193  0.2499999999646292
  0.0410551487076224  0.0193026462224956  0.3341243197472466
  0.0410551487443646  0.0217525025124471  0.1658756801820119
 
  0.00000000E+00  0.00000000E+00  0.00000000E+00
  0.00000000E+00  0.00000000E+00  0.00000000E+00
  0.00000000E+00  0.00000000E+00  0.00000000E+00
  0.00000000E+00  0.00000000E+00  0.00000000E+00
  0.00000000E+00  0.00000000E+00  0.00000000E+00
  0.00000000E+00  0.00000000E+00  0.00000000E+00
  0.00000000E+00  0.00000000E+00  0.00000000E+00
  0.00000000E+00  0.00000000E+00  0.00000000E+00
  0.00000000E+00  0.00000000E+00  0.00000000E+00
  0.00000000E+00  0.00000000E+00  0.00000000E+00
  0.00000000E+00  0.00000000E+00  0.00000000E+00
  0.00000000E+00  0.00000000E+00  0.00000000E+00
  0.00000000E+00  0.00000000E+00  0.00000000E+00
  0.00000000E+00  0.00000000E+00  0.00000000E+00
  0.00000000E+00  0.00000000E+00  0.00000000E+00
  0.00000000E+00  0.00000000E+00  0.00000000E+00
  0.00000000E+00  0.00000000E+00  0.00000000E+00
  0.00000000E+00  0.00000000E+00  0.00000000E+00
  0.00000000E+00  0.00000000E+00  0.00000000E+00
  0.00000000E+00  0.00000000E+00  0.00000000E+00
  0.00000000E+00  0.00000000E+00  0.00000000E+00
  0.00000000E+00  0.00000000E+00  0.00000000E+00
  0.00000000E+00  0.00000000E+00  0.00000000E+00
  0.00000000E+00  0.00000000E+00  0.00000000E+00
  0.00000000E+00  0.00000000E+00  0.00000000E+00
  0.00000000E+00  0.00000000E+00  0.00000000E+00
  0.00000000E+00  0.00000000E+00  0.00000000E+00
  0.00000000E+00  0.00000000E+00  0.00000000E+00
  0.00000000E+00  0.00000000E+00  0.00000000E+00
  0.00000000E+00  0.00000000E+00  0.00000000E+00
  0.00000000E+00  0.00000000E+00  0.00000000E+00
  0.00000000E+00  0.00000000E+00  0.00000000E+00
  0.00000000E+00  0.00000000E+00  0.00000000E+00
  0.00000000E+00  0.00000000E+00  0.00000000E+00
  0.00000000E+00  0.00000000E+00  0.00000000E+00
  0.00000000E+00  0.00000000E+00  0.00000000E+00
  0.00000000E+00  0.00000000E+00  0.00000000E+00
  0.00000000E+00  0.00000000E+00  0.00000000E+00
  0.00000000E+00  0.00000000E+00  0.00000000E+00
  0.00000000E+00  0.00000000E+00  0.00000000E+00
  0.00000000E+00  0.00000000E+00  0.00000000E+00
  0.00000000E+00  0.00000000E+00  0.00000000E+00
  0.00000000E+00  0.00000000E+00  0.00000000E+00
  0.00000000E+00  0.00000000E+00  0.00000000E+00
  0.00000000E+00  0.00000000E+00  0.00000000E+00
  0.00000000E+00  0.00000000E+00  0.00000000E+00
  0.00000000E+00  0.00000000E+00  0.00000000E+00
  0.00000000E+00  0.00000000E+00  0.00000000E+00
  0.00000000E+00  0.00000000E+00  0.00000000E+00
  0.00000000E+00  0.00000000E+00  0.00000000E+00
  0.00000000E+00  0.00000000E+00  0.00000000E+00
  0.00000000E+00  0.00000000E+00  0.00000000E+00
  0.00000000E+00  0.00000000E+00  0.00000000E+00
  0.00000000E+00  0.00000000E+00  0.00000000E+00
  0.00000000E+00  0.00000000E+00  0.00000000E+00
  0.00000000E+00  0.00000000E+00  0.00000000E+00
  0.00000000E+00  0.00000000E+00  0.00000000E+00
  0.00000000E+00  0.00000000E+00  0.00000000E+00
  0.00000000E+00  0.00000000E+00  0.00000000E+00
  0.00000000E+00  0.00000000E+00  0.00000000E+00
  0.00000000E+00  0.00000000E+00  0.00000000E+00
