
#----- Initialize Simulation -----
clear
units           metal
boundary        p p p 
atom_style      full
bond_style      none
variable        etol equal 1e-25
variable        ftol equal 1e-25
variable        maxiter equal 5000
variable        maxeval equal 10000
variable        probeTemp equal PROBETEMP

#----- Create Atoms -----
read_data       beryl_water_NN_q_0.mod
replicate       1 1 1   
compute         pe all pe       
thermo_style    custom step pe

#----- Define Interatomic Potential -----
include         ../potential_main.mod
include         ../potential_beryl.mod
include         ../potential_water.mod

#fix BRX all box/relax iso 1.013
#minimize        1e-6 1e-6 5000 10000 # Performs actual minimization
timestep        0.0005
run     0

