general:
 System = B_W
 ENCUT = 500
 ISMEAR = -5
 SIGMA = 0.025
 PREC = Acc
 EDIFF = -.1E-03
 EDIFFG = -.1E-01
 LREAL = Auto
 LORBIT=11
 IBRION = 2
 POTIM = 1.0
 ISIF = 2
 NSW = 50
 NELMIN = 4
