Beryl+water, initial                    
   1.00000000000000     
     9.2080001830999993    0.0000000000000000    0.0000000000000000
    -4.6040000915999997    7.9743620766000003    0.0000000000000000
     0.0000000000000000    0.0000000000000000    9.1879997252999992
   Be   Al   Si   O    H 
     6     4    12    38     4
Selective dynamics
Direct
  0.5000000000488711  0.0000000000000000  0.2499999999646292   F   F   F
  0.5000000000488711  0.0000000000000000  0.7500000000027214   F   F   F
  0.9999999999594706  0.4999999999623768  0.2499999999646292   F   F   F
  0.9999999999594706  0.4999999999623768  0.7500000000027214   F   F   F
  0.5000000000083418  0.4999999999623768  0.2499999999646292   F   F   F
  0.5000000000083418  0.4999999999623768  0.7500000000027214   F   F   F
  0.3333333432813248  0.6666666865554021  0.2499999999646292   F   F   F
  0.6666666269327237  0.3333333134947551  0.7500000000027214   F   F   F
  0.6666666269327237  0.3333333134947551  0.2499999999646292   F   F   F
  0.3333333432813248  0.6666666865554021  0.7500000000027214   F   F   F
  0.3877658843650380  0.1155285611752390  0.0000000000000000   F   F   F
  0.6122341752791769  0.8844714761192805  0.0000000000000000   F   F   F
  0.8844714761356514  0.2722373008833330  0.0000000000000000   F   F   F
  0.1155285611939476  0.7277626991668242  0.0000000000000000   F   F   F
  0.7277626991326684  0.6122341752359475  0.0000000000000000   F   F   F
  0.2722373008643260  0.3877658843801086  0.0000000000000000   F   F   F
  0.1155285611481460  0.3877658843801086  0.5000000000380922   F   F   F
  0.8844714760990655  0.6122341752359475  0.5000000000380922   F   F   F
  0.2722373008497030  0.8844714761192805  0.5000000000380922   F   F   F
  0.7277626991724446  0.1155285611752390  0.5000000000380922   F   F   F
  0.6122341752310021  0.7277626991668242  0.5000000000380922   F   F   F
  0.3877658843618477  0.2722373008833330  0.5000000000380922   F   F   F
  0.3083333968929409  0.2349497527203894  0.0000000000000000   F   F   F
  0.6916666031099084  0.7650502324069492  0.0000000000000000   F   F   F
  0.7650502324291892  0.0733836293585384  0.0000000000000000   F   F   F
  0.2349497526632263  0.9266163706916188  0.0000000000000000   F   F   F
  0.9266163706698620  0.6916666030484109  0.0000000000000000   F   F   F
  0.0733836293468144  0.3083333968763498  0.0000000000000000   F   F   F
  0.2349497526545150  0.3083333968763498  0.5000000000380922   F   F   F
  0.7650502323752022  0.6916666030484109  0.5000000000380922   F   F   F
  0.0733836293053471  0.7650502324069492  0.5000000000380922   F   F   F
  0.9266163706975021  0.2349497527203894  0.5000000000380922   F   F   F
  0.6916666030514946  0.9266163706916188  0.5000000000380922   F   F   F
  0.3083333969192878  0.0733836293585384  0.5000000000380922   F   F   F
  0.4989428817658776  0.1450866460396938  0.1461906879798178   F   F   F
  0.5010571479813208  0.8549132943191751  0.8538092970767792   F   F   F
  0.8549132942985196  0.3538562059127273  0.1461906879798178   F   F   F
  0.1450866460960896  0.6461437940120334  0.8538092970767792   F   F   F
  0.6461437940760817  0.5010571479723396  0.1461906879798178   F   F   F
  0.3538562059850534  0.4989428817980652  0.8538092970767792   F   F   F
  0.5010571479813208  0.8549132943191751  0.1461906879798178   F   F   F
  0.4989428817658776  0.1450866460396938  0.8538092970767792   F   F   F
  0.1450866460960896  0.6461437940120334  0.1461906879798178   F   F   F
  0.8549132942985196  0.3538562059127273  0.8538092970767792   F   F   F
  0.3538562059850534  0.4989428817980652  0.1461906879798178   F   F   F
  0.6461437940760817  0.5010571479723396  0.8538092970767792   F   F   F
  0.1450866460616922  0.4989428817980652  0.3538093268601870   F   F   F
  0.8549132942687763  0.5010571479723396  0.6461907029286635   F   F   F
  0.3538562059692083  0.8549132943191751  0.3538093268601870   F   F   F
  0.6461437940212562  0.1450866460396938  0.6461907029286635   F   F   F
  0.5010571479229569  0.6461437940120334  0.3538093268601870   F   F   F
  0.4989428818504535  0.3538562059127273  0.6461907029286635   F   F   F
  0.8549132942687763  0.5010571479723396  0.3538093268601870   F   F   F
  0.1450866460616922  0.4989428817980652  0.6461907029286635   F   F   F
  0.6461437940212562  0.1450866460396938  0.3538093268601870   F   F   F
  0.3538562059692083  0.8549132943191751  0.6461907029286635   F   F   F
  0.4989428818504535  0.3538562059127273  0.3538093268601870   F   F   F
  0.5010571479229569  0.6461437940120334  0.6461907029286635   F   F   F
  0.0576900710261489  0.0000000000000000  0.2499999999646292   T   T   T
  0.9423099289738509  0.0000000000000000  0.7500000000027214   T   T   T
  0.0134082520325962  0.0397772024446570  0.1732967103142489   T   T   T
  0.9736310495869090  0.9602227975553437  0.3267032896150096   T   T   T
  0.0263689504130911  0.0397772024446570  0.6732967103523415   T   T   T
  0.9865917479674038  0.9602227975553437  0.8267032896531012   T   T   T
 
  0.00000000E+00  0.00000000E+00  0.00000000E+00
  0.00000000E+00  0.00000000E+00  0.00000000E+00
  0.00000000E+00  0.00000000E+00  0.00000000E+00
  0.00000000E+00  0.00000000E+00  0.00000000E+00
  0.00000000E+00  0.00000000E+00  0.00000000E+00
  0.00000000E+00  0.00000000E+00  0.00000000E+00
  0.00000000E+00  0.00000000E+00  0.00000000E+00
  0.00000000E+00  0.00000000E+00  0.00000000E+00
  0.00000000E+00  0.00000000E+00  0.00000000E+00
  0.00000000E+00  0.00000000E+00  0.00000000E+00
  0.00000000E+00  0.00000000E+00  0.00000000E+00
  0.00000000E+00  0.00000000E+00  0.00000000E+00
  0.00000000E+00  0.00000000E+00  0.00000000E+00
  0.00000000E+00  0.00000000E+00  0.00000000E+00
  0.00000000E+00  0.00000000E+00  0.00000000E+00
  0.00000000E+00  0.00000000E+00  0.00000000E+00
  0.00000000E+00  0.00000000E+00  0.00000000E+00
  0.00000000E+00  0.00000000E+00  0.00000000E+00
  0.00000000E+00  0.00000000E+00  0.00000000E+00
  0.00000000E+00  0.00000000E+00  0.00000000E+00
  0.00000000E+00  0.00000000E+00  0.00000000E+00
  0.00000000E+00  0.00000000E+00  0.00000000E+00
  0.00000000E+00  0.00000000E+00  0.00000000E+00
  0.00000000E+00  0.00000000E+00  0.00000000E+00
  0.00000000E+00  0.00000000E+00  0.00000000E+00
  0.00000000E+00  0.00000000E+00  0.00000000E+00
  0.00000000E+00  0.00000000E+00  0.00000000E+00
  0.00000000E+00  0.00000000E+00  0.00000000E+00
  0.00000000E+00  0.00000000E+00  0.00000000E+00
  0.00000000E+00  0.00000000E+00  0.00000000E+00
  0.00000000E+00  0.00000000E+00  0.00000000E+00
  0.00000000E+00  0.00000000E+00  0.00000000E+00
  0.00000000E+00  0.00000000E+00  0.00000000E+00
  0.00000000E+00  0.00000000E+00  0.00000000E+00
  0.00000000E+00  0.00000000E+00  0.00000000E+00
  0.00000000E+00  0.00000000E+00  0.00000000E+00
  0.00000000E+00  0.00000000E+00  0.00000000E+00
  0.00000000E+00  0.00000000E+00  0.00000000E+00
  0.00000000E+00  0.00000000E+00  0.00000000E+00
  0.00000000E+00  0.00000000E+00  0.00000000E+00
  0.00000000E+00  0.00000000E+00  0.00000000E+00
  0.00000000E+00  0.00000000E+00  0.00000000E+00
  0.00000000E+00  0.00000000E+00  0.00000000E+00
  0.00000000E+00  0.00000000E+00  0.00000000E+00
  0.00000000E+00  0.00000000E+00  0.00000000E+00
  0.00000000E+00  0.00000000E+00  0.00000000E+00
  0.00000000E+00  0.00000000E+00  0.00000000E+00
  0.00000000E+00  0.00000000E+00  0.00000000E+00
  0.00000000E+00  0.00000000E+00  0.00000000E+00
  0.00000000E+00  0.00000000E+00  0.00000000E+00
  0.00000000E+00  0.00000000E+00  0.00000000E+00
  0.00000000E+00  0.00000000E+00  0.00000000E+00
  0.00000000E+00  0.00000000E+00  0.00000000E+00
  0.00000000E+00  0.00000000E+00  0.00000000E+00
  0.00000000E+00  0.00000000E+00  0.00000000E+00
  0.00000000E+00  0.00000000E+00  0.00000000E+00
  0.00000000E+00  0.00000000E+00  0.00000000E+00
  0.00000000E+00  0.00000000E+00  0.00000000E+00
  0.00000000E+00  0.00000000E+00  0.00000000E+00
  0.00000000E+00  0.00000000E+00  0.00000000E+00
  0.00000000E+00  0.00000000E+00  0.00000000E+00
  0.00000000E+00  0.00000000E+00  0.00000000E+00
  0.00000000E+00  0.00000000E+00  0.00000000E+00
  0.00000000E+00  0.00000000E+00  0.00000000E+00
