Beryl, American Mineralogist 71 (1986)  
   1.00000000000000     
     9.2080001830999993    0.0000000000000000    0.0000000000000000
    -4.6040000915999997    7.9743620766000003    0.0000000000000000
     0.0000000000000000    0.0000000000000000    9.1879997252999992
   Be   Al   Si   O 
     6     4    12    36
Direct
  0.5000000000488711  0.0000000000000000  0.2499999999646292
  0.5000000000488711  0.0000000000000000  0.7500000000027214
  0.9999999999594706  0.4999999999623768  0.2499999999646292
  0.9999999999594706  0.4999999999623768  0.7500000000027214
  0.5000000000083418  0.4999999999623768  0.2499999999646292
  0.5000000000083418  0.4999999999623768  0.7500000000027214
  0.3333333432813248  0.6666666865554021  0.2499999999646292
  0.6666666269327237  0.3333333134947551  0.7500000000027214
  0.6666666269327237  0.3333333134947551  0.2499999999646292
  0.3333333432813248  0.6666666865554021  0.7500000000027214
  0.3877658821745791  0.1155285593581294  0.0000000000000000
  0.6122341476363764  0.8844714630135715  0.0000000000000000
  0.8844714629954811  0.2722373154165805  0.0000000000000000
  0.1155285593471444  0.7277626846335767  0.0000000000000000
  0.7277626846300240  0.6122341475969910  0.0000000000000000
  0.2722373154311111  0.3877658821734138  0.0000000000000000
  0.1155285593616395  0.3877658821734138  0.5000000000380922
  0.8844714630713528  0.6122341475969910  0.5000000000380922
  0.2722373153868017  0.8844714630135715  0.5000000000380922
  0.7277626846674199  0.1155285593581294  0.5000000000380922
  0.6122341476661979  0.7277626846335767  0.5000000000380922
  0.3877658821699179  0.2722373154165805  0.5000000000380922
  0.3083333973847279  0.2349497573414904  0.0000000000000000
  0.6916666025998817  0.7650502575060887  0.0000000000000000
  0.7650502574994451  0.0733836326123673  0.0000000000000000
  0.2349497573748575  0.9266163451162605  0.0000000000000000
  0.9266163451147328  0.6916666025721918  0.0000000000000000
  0.0733836325301007  0.3083333973525687  0.0000000000000000
  0.2349497573323315  0.3083333973525687  0.5000000000380922
  0.7650502574541125  0.6916666025721918  0.5000000000380922
  0.0733836325426702  0.7650502575060887  0.5000000000380922
  0.9266163450700894  0.2349497573414904  0.5000000000380922
  0.6916666026298310  0.9266163451162605  0.5000000000380922
  0.3083333974747039  0.0733836326123673  0.5000000000380922
  0.4989428820888545  0.1450866508570041  0.1461906805659661
  0.5010571477348766  0.8549133044246904  0.8538092896887184
  0.8549133044732631  0.3538562163835535  0.1461906805659661
  0.1450866508624185  0.6461437836666036  0.8538092896887184
  0.6461437837175993  0.5010571477324253  0.1461906805659661
  0.3538562163435358  0.4989428820379797  0.8538092896887184
  0.5010571477348766  0.8549133044246904  0.1461906805659661
  0.4989428820888545  0.1450866508570041  0.8538092896887184
  0.1450866508624185  0.6461437836666036  0.1461906805659661
  0.8549133044732631  0.3538562163835535  0.8538092896887184
  0.3538562163435358  0.4989428820379797  0.1461906805659661
  0.6461437837175993  0.5010571477324253  0.8538092896887184
  0.1450866508214912  0.4989428820379797  0.3538093194721261
  0.8549133044959436  0.5010571477324253  0.6461907103167244
  0.3538562163211608  0.8549133044246904  0.3538093194721261
  0.6461437836372298  0.1450866508570041  0.6461907103167244
  0.5010571476895724  0.6461437836666036  0.3538093194721261
  0.4989428820379370  0.3538562163835535  0.6461907103167244
  0.8549133044959436  0.5010571477324253  0.3538093194721261
  0.1450866508214912  0.4989428820379797  0.6461907103167244
  0.6461437836372298  0.1450866508570041  0.3538093194721261
  0.3538562163211608  0.8549133044246904  0.6461907103167244
  0.4989428820379370  0.3538562163835535  0.3538093194721261
  0.5010571476895724  0.6461437836666036  0.6461907103167244
 
  0.00000000E+00  0.00000000E+00  0.00000000E+00
  0.00000000E+00  0.00000000E+00  0.00000000E+00
  0.00000000E+00  0.00000000E+00  0.00000000E+00
  0.00000000E+00  0.00000000E+00  0.00000000E+00
  0.00000000E+00  0.00000000E+00  0.00000000E+00
  0.00000000E+00  0.00000000E+00  0.00000000E+00
  0.00000000E+00  0.00000000E+00  0.00000000E+00
  0.00000000E+00  0.00000000E+00  0.00000000E+00
  0.00000000E+00  0.00000000E+00  0.00000000E+00
  0.00000000E+00  0.00000000E+00  0.00000000E+00
  0.00000000E+00  0.00000000E+00  0.00000000E+00
  0.00000000E+00  0.00000000E+00  0.00000000E+00
  0.00000000E+00  0.00000000E+00  0.00000000E+00
  0.00000000E+00  0.00000000E+00  0.00000000E+00
  0.00000000E+00  0.00000000E+00  0.00000000E+00
  0.00000000E+00  0.00000000E+00  0.00000000E+00
  0.00000000E+00  0.00000000E+00  0.00000000E+00
  0.00000000E+00  0.00000000E+00  0.00000000E+00
  0.00000000E+00  0.00000000E+00  0.00000000E+00
  0.00000000E+00  0.00000000E+00  0.00000000E+00
  0.00000000E+00  0.00000000E+00  0.00000000E+00
  0.00000000E+00  0.00000000E+00  0.00000000E+00
  0.00000000E+00  0.00000000E+00  0.00000000E+00
  0.00000000E+00  0.00000000E+00  0.00000000E+00
  0.00000000E+00  0.00000000E+00  0.00000000E+00
  0.00000000E+00  0.00000000E+00  0.00000000E+00
  0.00000000E+00  0.00000000E+00  0.00000000E+00
  0.00000000E+00  0.00000000E+00  0.00000000E+00
  0.00000000E+00  0.00000000E+00  0.00000000E+00
  0.00000000E+00  0.00000000E+00  0.00000000E+00
  0.00000000E+00  0.00000000E+00  0.00000000E+00
  0.00000000E+00  0.00000000E+00  0.00000000E+00
  0.00000000E+00  0.00000000E+00  0.00000000E+00
  0.00000000E+00  0.00000000E+00  0.00000000E+00
  0.00000000E+00  0.00000000E+00  0.00000000E+00
  0.00000000E+00  0.00000000E+00  0.00000000E+00
  0.00000000E+00  0.00000000E+00  0.00000000E+00
  0.00000000E+00  0.00000000E+00  0.00000000E+00
  0.00000000E+00  0.00000000E+00  0.00000000E+00
  0.00000000E+00  0.00000000E+00  0.00000000E+00
  0.00000000E+00  0.00000000E+00  0.00000000E+00
  0.00000000E+00  0.00000000E+00  0.00000000E+00
  0.00000000E+00  0.00000000E+00  0.00000000E+00
  0.00000000E+00  0.00000000E+00  0.00000000E+00
  0.00000000E+00  0.00000000E+00  0.00000000E+00
  0.00000000E+00  0.00000000E+00  0.00000000E+00
  0.00000000E+00  0.00000000E+00  0.00000000E+00
  0.00000000E+00  0.00000000E+00  0.00000000E+00
  0.00000000E+00  0.00000000E+00  0.00000000E+00
  0.00000000E+00  0.00000000E+00  0.00000000E+00
  0.00000000E+00  0.00000000E+00  0.00000000E+00
  0.00000000E+00  0.00000000E+00  0.00000000E+00
  0.00000000E+00  0.00000000E+00  0.00000000E+00
  0.00000000E+00  0.00000000E+00  0.00000000E+00
  0.00000000E+00  0.00000000E+00  0.00000000E+00
  0.00000000E+00  0.00000000E+00  0.00000000E+00
  0.00000000E+00  0.00000000E+00  0.00000000E+00
  0.00000000E+00  0.00000000E+00  0.00000000E+00
