Beryl, American Mineralogist 71 (1986)  
   1.00000000000000     
     9.2080001830999993    0.0000000000000000    0.0000000000000000
    -4.6040000915999997    7.9743620766000003    0.0000000000000000
     0.0000000000000000    0.0000000000000000    9.1879997252999992
   Be   Al   Si   O 
     6     4    12    36
Direct
  0.5000000000488711  0.0000000000000000  0.2499999999646292
  0.5000000000488711  0.0000000000000000  0.7500000000027214
  0.9999999999594706  0.4999999999623768  0.2499999999646292
  0.9999999999594706  0.4999999999623768  0.7500000000027214
  0.5000000000083418  0.4999999999623768  0.2499999999646292
  0.5000000000083418  0.4999999999623768  0.7500000000027214
  0.3333333432813248  0.6666666865554021  0.2499999999646292
  0.6666666269327237  0.3333333134947551  0.7500000000027214
  0.6666666269327237  0.3333333134947551  0.2499999999646292
  0.3333333432813248  0.6666666865554021  0.7500000000027214
  0.3877658766662895  0.1155285311721499  0.0000000000000000
  0.6122341531446661  0.8844714911995509  0.0000000000000000
  0.8844714911814605  0.2722373380942635  0.0000000000000000
  0.1155285311611649  0.7277626619558935  0.0000000000000000
  0.7277626619523407  0.6122341531052807  0.0000000000000000
  0.2722373381087941  0.3877658766651242  0.0000000000000000
  0.1155285311756600  0.3877658766651242  0.5000000000380922
  0.8844714912573323  0.6122341531052807  0.5000000000380922
  0.2722373380644846  0.8844714911995509  0.5000000000380922
  0.7277626619897366  0.1155285311721499  0.5000000000380922
  0.6122341531744876  0.7277626619558935  0.5000000000380922
  0.3877658766616284  0.2722373380942635  0.5000000000380922
  0.3083333967382688  0.2349497630921975  0.0000000000000000
  0.6916666032463411  0.7650502517553818  0.0000000000000000
  0.7650502517487382  0.0733836262152010  0.0000000000000000
  0.2349497631255646  0.9266163515134268  0.0000000000000000
  0.9266163515118991  0.6916666032186513  0.0000000000000000
  0.0733836261329344  0.3083333967061096  0.0000000000000000
  0.2349497630830386  0.3083333967061096  0.5000000000380922
  0.7650502517034056  0.6916666032186513  0.5000000000380922
  0.0733836261455039  0.7650502517553818  0.5000000000380922
  0.9266163514672557  0.2349497630921975  0.5000000000380922
  0.6916666032762905  0.9266163515134268  0.5000000000380922
  0.3083333968282448  0.0733836262152010  0.5000000000380922
  0.4989428794508319  0.1450866469518452  0.1461906815925919
  0.5010571503728997  0.8549133083298496  0.8538092886620923
  0.8549133083784223  0.3538562176506899  0.1461906815925919
  0.1450866469572595  0.6461437823994670  0.8538092886620923
  0.6461437824504627  0.5010571503704483  0.1461906815925919
  0.3538562176106721  0.4989428793999570  0.8538092886620923
  0.5010571503728997  0.8549133083298496  0.1461906815925919
  0.4989428794508319  0.1450866469518452  0.8538092886620923
  0.1450866469572595  0.6461437823994670  0.1461906815925919
  0.8549133083784223  0.3538562176506899  0.8538092886620923
  0.3538562176106721  0.4989428793999570  0.1461906815925919
  0.6461437824504627  0.5010571503704483  0.8538092886620923
  0.1450866469163322  0.4989428793999570  0.3538093184455003
  0.8549133084011028  0.5010571503704483  0.6461907113433505
  0.3538562175882971  0.8549133083298496  0.3538093184455003
  0.6461437823700932  0.1450866469518452  0.6461907113433505
  0.5010571503275955  0.6461437823994670  0.3538093184455003
  0.4989428793999144  0.3538562176506899  0.6461907113433505
  0.8549133084011028  0.5010571503704483  0.3538093184455003
  0.1450866469163322  0.4989428793999570  0.6461907113433505
  0.6461437823700932  0.1450866469518452  0.3538093184455003
  0.3538562175882971  0.8549133083298496  0.6461907113433505
  0.4989428793999144  0.3538562176506899  0.3538093184455003
  0.5010571503275955  0.6461437823994670  0.6461907113433505
 
  0.00000000E+00  0.00000000E+00  0.00000000E+00
  0.00000000E+00  0.00000000E+00  0.00000000E+00
  0.00000000E+00  0.00000000E+00  0.00000000E+00
  0.00000000E+00  0.00000000E+00  0.00000000E+00
  0.00000000E+00  0.00000000E+00  0.00000000E+00
  0.00000000E+00  0.00000000E+00  0.00000000E+00
  0.00000000E+00  0.00000000E+00  0.00000000E+00
  0.00000000E+00  0.00000000E+00  0.00000000E+00
  0.00000000E+00  0.00000000E+00  0.00000000E+00
  0.00000000E+00  0.00000000E+00  0.00000000E+00
  0.00000000E+00  0.00000000E+00  0.00000000E+00
  0.00000000E+00  0.00000000E+00  0.00000000E+00
  0.00000000E+00  0.00000000E+00  0.00000000E+00
  0.00000000E+00  0.00000000E+00  0.00000000E+00
  0.00000000E+00  0.00000000E+00  0.00000000E+00
  0.00000000E+00  0.00000000E+00  0.00000000E+00
  0.00000000E+00  0.00000000E+00  0.00000000E+00
  0.00000000E+00  0.00000000E+00  0.00000000E+00
  0.00000000E+00  0.00000000E+00  0.00000000E+00
  0.00000000E+00  0.00000000E+00  0.00000000E+00
  0.00000000E+00  0.00000000E+00  0.00000000E+00
  0.00000000E+00  0.00000000E+00  0.00000000E+00
  0.00000000E+00  0.00000000E+00  0.00000000E+00
  0.00000000E+00  0.00000000E+00  0.00000000E+00
  0.00000000E+00  0.00000000E+00  0.00000000E+00
  0.00000000E+00  0.00000000E+00  0.00000000E+00
  0.00000000E+00  0.00000000E+00  0.00000000E+00
  0.00000000E+00  0.00000000E+00  0.00000000E+00
  0.00000000E+00  0.00000000E+00  0.00000000E+00
  0.00000000E+00  0.00000000E+00  0.00000000E+00
  0.00000000E+00  0.00000000E+00  0.00000000E+00
  0.00000000E+00  0.00000000E+00  0.00000000E+00
  0.00000000E+00  0.00000000E+00  0.00000000E+00
  0.00000000E+00  0.00000000E+00  0.00000000E+00
  0.00000000E+00  0.00000000E+00  0.00000000E+00
  0.00000000E+00  0.00000000E+00  0.00000000E+00
  0.00000000E+00  0.00000000E+00  0.00000000E+00
  0.00000000E+00  0.00000000E+00  0.00000000E+00
  0.00000000E+00  0.00000000E+00  0.00000000E+00
  0.00000000E+00  0.00000000E+00  0.00000000E+00
  0.00000000E+00  0.00000000E+00  0.00000000E+00
  0.00000000E+00  0.00000000E+00  0.00000000E+00
  0.00000000E+00  0.00000000E+00  0.00000000E+00
  0.00000000E+00  0.00000000E+00  0.00000000E+00
  0.00000000E+00  0.00000000E+00  0.00000000E+00
  0.00000000E+00  0.00000000E+00  0.00000000E+00
  0.00000000E+00  0.00000000E+00  0.00000000E+00
  0.00000000E+00  0.00000000E+00  0.00000000E+00
  0.00000000E+00  0.00000000E+00  0.00000000E+00
  0.00000000E+00  0.00000000E+00  0.00000000E+00
  0.00000000E+00  0.00000000E+00  0.00000000E+00
  0.00000000E+00  0.00000000E+00  0.00000000E+00
  0.00000000E+00  0.00000000E+00  0.00000000E+00
  0.00000000E+00  0.00000000E+00  0.00000000E+00
  0.00000000E+00  0.00000000E+00  0.00000000E+00
  0.00000000E+00  0.00000000E+00  0.00000000E+00
  0.00000000E+00  0.00000000E+00  0.00000000E+00
  0.00000000E+00  0.00000000E+00  0.00000000E+00
