# Potential Paramters
pair_coeff    1    1 morse     		  0 	       0           0  # Be Be
pair_coeff    1    1 buck                 0            1           -201.0 
pair_coeff    1    1 lj/cut/coul/long	  10120.	0.413	           
pair_coeff    1    2 morse     		  0 	       0           0  # Be Al 
pair_coeff    1    2 buck                 0            1           0 
pair_coeff    1    2 lj/cut/coul/long	  0	       0           
pair_coeff    1    3 morse     		  0 	       0           0  # Al Si
pair_coeff    1    3 buck                 0            1           0 
pair_coeff    1    3 lj/cut/coul/long	  0	       0           
pair_coeff    1    4 morse 		  0.239919     2.527420    1.815405	#Be O
pair_coeff    1    4 buck                 0.000000     1.000000   -46.00000
pair_coeff    1    4 lj/cut/coul/long     529.000      0.528	
pair_coeff    2    2 morse     		  0 	       0           0  # Al Al
pair_coeff    2    2 buck                 0            1           -492. 
pair_coeff    2    2 lj/cut/coul/long	  60423		0.356           
pair_coeff    2    3 morse     		  0 	       0           0  # Al si
pair_coeff    2    3 buck                 0            1           0 
pair_coeff    2    3 lj/cut/coul/long	  0	       0           
pair_coeff    2    4 morse 		  0.361581     1.900442    2.164818	#Al O
pair_coeff    2    4 buck                 0.000000     1.000000   -71.5
pair_coeff    2    4 lj/cut/coul/long     1420.0	0.482
pair_coeff    3    3 morse     		  0 	       0           0  # Si Si
pair_coeff    3    3 buck                 0            1           -282. 
pair_coeff    3    3 lj/cut/coul/long	  19730		0.391           
pair_coeff    3    4 morse 		  0.340554     2.006700    2.100000	#Si O
pair_coeff    3    4 buck                 0.000000     1.000000   -60.5
pair_coeff    3    4 lj/cut/coul/long     916.		0.504
pair_coeff    4    4 morse     		  0.042395     1.379316    3.618701  # O O  
pair_coeff    4    4 buck                 0.000000     1.000000   -16.7 
pair_coeff    4    4 lj/cut/coul/long	  3.16		1.05
