Beryl+water, scan_3                     
   1.00000000000000     
     9.2080001830999993    0.0000000000000000    0.0000000000000000
    -4.6040000915999997    7.9743620766000003    0.0000000000000000
     0.0000000000000000    0.0000000000000000    9.1879997252999992
   Be   Al   Si   O    H 
     6     4    12    38     4
Direct
  0.5017938907988161  0.0000000000000000  0.2499999999646292
  0.4982061092989176  0.0000000000000000  0.7500000000027214
  0.9996644294522387  0.4987318372253052  0.2499196447036606
  0.0003355704666921  0.5012681626994482  0.7500803552636898
  0.5009325922382047  0.5012681626994482  0.2500803552255966
  0.4990674077784899  0.4987318372253052  0.7499196447417530
  0.3333356285938995  0.6666427755388635  0.2499780023818441
  0.6666643416201420  0.3333572245112976  0.7500219975855081
  0.6666928232618170  0.3333572245112976  0.2500219975474141
  0.3333071469522204  0.6666427755388635  0.7499780024199346
  0.3877846466835264  0.1157320643890246  0.0010262179937455
  0.6122154129606882  0.8842679729054920  0.9989737820062485
  0.8846267106049811  0.2722557833909998  0.9995747944994847
  0.1153733267246174  0.7277442166591596  0.0004252055005196
  0.7274814678320484  0.6117335812170706  0.9993932017830026
  0.2725185321649428  0.3882664783989848  0.0006067982169924
  0.1157479238663994  0.3882664783989848  0.5006067982550896
  0.8842521133808096  0.6117335812170706  0.4993932018210993
  0.2720525599543999  0.8842679729054920  0.4989737820443441
  0.7279474400677542  0.1157320643890246  0.5010262180318437
  0.6123709271926835  0.7277442166591596  0.5004252055386075
  0.3876291324001669  0.2722557833909998  0.4995747945375733
  0.3080792979428321  0.2349820092283344  0.0047710701050642
  0.6919207020600221  0.7650179758990091  0.9952289298949361
  0.7671383718990327  0.0726348866272886  0.9930183476836740
  0.2328616131933779  0.9273651134228647  0.0069816523163279
  0.9262250545016595  0.6907819149799319  0.0012090715158920
  0.0737749455150214  0.3092180849448270  0.9987909284841070
  0.2354431245547949  0.3092180849448270  0.4987909285222012
  0.7645568604749188  0.6907819149799319  0.5012090715539852
  0.0730972738472960  0.7650179758990091  0.4952289299330240
  0.9269027261555535  0.2349820092283344  0.5047710701431561
  0.6945034852526066  0.9273651134228647  0.5069816523544182
  0.3054965147181832  0.0726348866272886  0.4930183477217627
  0.5006691564238748  0.1453059644604323  0.1463479134701507
  0.4993308733233189  0.8546939758984327  0.8536520715864444
  0.8540802769180272  0.3521025508954764  0.1461343987191225
  0.1459196634765843  0.6478974490292865  0.8538655863374669
  0.6456719001514000  0.5012294903987731  0.1457291403175321
  0.3543280999097413  0.4987705393716286  0.8542708447390692
  0.5027176465944744  0.8556819040750726  0.1456458180803731
  0.4972823831527354  0.1443180362837972  0.8543541669762236
  0.1448887379344136  0.6448428377503733  0.1459398423490660
  0.8551112024601858  0.3551571621743874  0.8540601427075177
  0.3544557187881988  0.5003448125315478  0.1463832092057806
  0.6455442812729277  0.4996552172388476  0.8536167758508116
  0.1444424097105639  0.4987705393716286  0.3542708745224733
  0.8555575306199082  0.5012294903987731  0.6457291552663735
  0.3553631622064768  0.8546939758984327  0.3536521013698510
  0.6446368377839817  0.1453059644604323  0.6463479284189984
  0.5019777855597181  0.6478974490292865  0.3538656161208827
  0.4980222442136948  0.3521025508954764  0.6461344136679759
  0.8541108763384411  0.4996552172388476  0.3536168056342255
  0.1458890639920306  0.5003448125315478  0.6463832241546311
  0.6470356828785185  0.1443180362837972  0.3543541967596363
  0.3529643171119554  0.8556819040750726  0.6456458330292192
  0.5000459299504374  0.3551571621743874  0.3540601724909375
  0.4999540998229684  0.6448428377503733  0.6459398572979250
  0.9804473191944488  0.0000000000000000  0.2499999999646292
  0.0195526808055479  0.0000000000000000  0.7499999998938804
  0.0462960383830383  0.0023536827760580  0.3337896881182170
  0.0439423556069800  0.9976463172239380  0.1662103118110425
  0.9537039616169568  0.9976463172239380  0.6662103117402955
  0.9560576443930292  0.0023536827760580  0.8337896880474724
 
  0.00000000E+00  0.00000000E+00  0.00000000E+00
  0.00000000E+00  0.00000000E+00  0.00000000E+00
  0.00000000E+00  0.00000000E+00  0.00000000E+00
  0.00000000E+00  0.00000000E+00  0.00000000E+00
  0.00000000E+00  0.00000000E+00  0.00000000E+00
  0.00000000E+00  0.00000000E+00  0.00000000E+00
  0.00000000E+00  0.00000000E+00  0.00000000E+00
  0.00000000E+00  0.00000000E+00  0.00000000E+00
  0.00000000E+00  0.00000000E+00  0.00000000E+00
  0.00000000E+00  0.00000000E+00  0.00000000E+00
  0.00000000E+00  0.00000000E+00  0.00000000E+00
  0.00000000E+00  0.00000000E+00  0.00000000E+00
  0.00000000E+00  0.00000000E+00  0.00000000E+00
  0.00000000E+00  0.00000000E+00  0.00000000E+00
  0.00000000E+00  0.00000000E+00  0.00000000E+00
  0.00000000E+00  0.00000000E+00  0.00000000E+00
  0.00000000E+00  0.00000000E+00  0.00000000E+00
  0.00000000E+00  0.00000000E+00  0.00000000E+00
  0.00000000E+00  0.00000000E+00  0.00000000E+00
  0.00000000E+00  0.00000000E+00  0.00000000E+00
  0.00000000E+00  0.00000000E+00  0.00000000E+00
  0.00000000E+00  0.00000000E+00  0.00000000E+00
  0.00000000E+00  0.00000000E+00  0.00000000E+00
  0.00000000E+00  0.00000000E+00  0.00000000E+00
  0.00000000E+00  0.00000000E+00  0.00000000E+00
  0.00000000E+00  0.00000000E+00  0.00000000E+00
  0.00000000E+00  0.00000000E+00  0.00000000E+00
  0.00000000E+00  0.00000000E+00  0.00000000E+00
  0.00000000E+00  0.00000000E+00  0.00000000E+00
  0.00000000E+00  0.00000000E+00  0.00000000E+00
  0.00000000E+00  0.00000000E+00  0.00000000E+00
  0.00000000E+00  0.00000000E+00  0.00000000E+00
  0.00000000E+00  0.00000000E+00  0.00000000E+00
  0.00000000E+00  0.00000000E+00  0.00000000E+00
  0.00000000E+00  0.00000000E+00  0.00000000E+00
  0.00000000E+00  0.00000000E+00  0.00000000E+00
  0.00000000E+00  0.00000000E+00  0.00000000E+00
  0.00000000E+00  0.00000000E+00  0.00000000E+00
  0.00000000E+00  0.00000000E+00  0.00000000E+00
  0.00000000E+00  0.00000000E+00  0.00000000E+00
  0.00000000E+00  0.00000000E+00  0.00000000E+00
  0.00000000E+00  0.00000000E+00  0.00000000E+00
  0.00000000E+00  0.00000000E+00  0.00000000E+00
  0.00000000E+00  0.00000000E+00  0.00000000E+00
  0.00000000E+00  0.00000000E+00  0.00000000E+00
  0.00000000E+00  0.00000000E+00  0.00000000E+00
  0.00000000E+00  0.00000000E+00  0.00000000E+00
  0.00000000E+00  0.00000000E+00  0.00000000E+00
  0.00000000E+00  0.00000000E+00  0.00000000E+00
  0.00000000E+00  0.00000000E+00  0.00000000E+00
  0.00000000E+00  0.00000000E+00  0.00000000E+00
  0.00000000E+00  0.00000000E+00  0.00000000E+00
  0.00000000E+00  0.00000000E+00  0.00000000E+00
  0.00000000E+00  0.00000000E+00  0.00000000E+00
  0.00000000E+00  0.00000000E+00  0.00000000E+00
  0.00000000E+00  0.00000000E+00  0.00000000E+00
  0.00000000E+00  0.00000000E+00  0.00000000E+00
  0.00000000E+00  0.00000000E+00  0.00000000E+00
  0.00000000E+00  0.00000000E+00  0.00000000E+00
  0.00000000E+00  0.00000000E+00  0.00000000E+00
  0.00000000E+00  0.00000000E+00  0.00000000E+00
  0.00000000E+00  0.00000000E+00  0.00000000E+00
  0.00000000E+00  0.00000000E+00  0.00000000E+00
  0.00000000E+00  0.00000000E+00  0.00000000E+00
