Beryl+water, scan_3                     
   1.00000000000000     
     9.2080001830999993    0.0000000000000000    0.0000000000000000
    -4.6040000915999997    7.9743620766000003    0.0000000000000000
     0.0000000000000000    0.0000000000000000    9.1879997252999992
   Be   Al   Si   O    H 
     6     4    12    38     4
Direct
  0.5018035432889595  0.0000000000000000  0.2499999999646292
  0.4981964568087829  0.0000000000000000  0.7500000000027214
  0.9996609121454231  0.4987211281834626  0.2498901032168155
  0.0003390877735186  0.5012788717412906  0.7501098967505353
  0.5009397839732084  0.5012788717412906  0.2501098967124429
  0.4990602160434756  0.4987211281834626  0.7498901032549075
  0.3333223834738260  0.6666241894322099  0.2499832429233507
  0.6666775867402219  0.3333758106179469  0.7500167570439996
  0.6666981642484090  0.3333758106179469  0.2500167570059076
  0.3333018059656389  0.6666241894322099  0.7499832429614431
  0.3877817274802584  0.1157457676683724  0.0010257219396945
  0.6122183321639569  0.8842542696261472  0.9989742780603055
  0.8846307430818864  0.2722626776089646  0.9995561590574638
  0.1153692942477123  0.7277373224411920  0.0004438409425365
  0.7274626904616106  0.6117208333304490  0.9993988990919903
  0.2725373095353839  0.3882792262856073  0.0006011009080096
  0.1157418943825794  0.3882792262856073  0.5006011009461019
  0.8842581428646320  0.6117208333304490  0.4993988991300824
  0.2720359374717830  0.8842542696261472  0.4989742780983977
  0.7279640625503645  0.1157457676683724  0.5010257219777867
  0.6123680654516200  0.7277373224411919  0.5004438409806284
  0.3876319941412303  0.2722626776089646  0.4995561590955556
  0.3080714891923736  0.2349904194286899  0.0047573186352372
  0.6919285108104758  0.7650095656986491  0.9952426813647629
  0.7670919578656088  0.0726328572843179  0.9930003976053683
  0.2329080272268062  0.9273671427658394  0.0069996023946315
  0.9262206462582662  0.6907897605277494  0.0012233235322348
  0.0737793537584105  0.3092102393970114  0.9987766764677650
  0.2354308707635946  0.3092102393970114  0.4987766765058574
  0.7645691142661227  0.6907897605277494  0.5012233235703272
  0.0730810548964794  0.7650095656986491  0.4952426814028552
  0.9269189451063704  0.2349904194286899  0.5047573186733293
  0.6944591005621422  0.9273671427658394  0.5069996024327239
  0.3055408994086404  0.0726328572843179  0.4930003976434609
  0.5006606584052981  0.1453079834039729  0.1463419471390485
  0.4993393713419011  0.8546919569548962  0.8536580379175488
  0.8540861646990060  0.3520840687934862  0.1461364625897232
  0.1459137756956037  0.6479159311312741  0.8538635224668737
  0.6456443798299162  0.5012184199843496  0.1457228012143816
  0.3543556202312193  0.4987816097860551  0.8542771838422152
  0.5026957703194812  0.8556529487238219  0.1456394506316343
  0.4973042594277253  0.1443469916350474  0.8543605344249628
  0.1448769162433226  0.6448486317233496  0.1459739268108048
  0.8551230241512857  0.3551513682014114  0.8540260582457924
  0.3544624169786663  0.5003579380190745  0.1463924053680673
  0.6455375830824682  0.4996420917513310  0.8536075796885293
  0.1444259598035163  0.4987816097860551  0.3542772136256231
  0.8555739805269520  0.5012184199843496  0.6457228161632276
  0.3553526452443493  0.8546919569548962  0.3536580677009561
  0.6446473547461149  0.1453079834039729  0.6463419620878940
  0.5020021554426838  0.6479159311312741  0.3538635522502816
  0.4979978743307267  0.3520840687934862  0.6461364775385691
  0.8541044490413878  0.4996420917513310  0.3536076094719376
  0.1458954912890807  0.5003579380190745  0.6463924203169135
  0.6470427619547624  0.1443469916350474  0.3543605642083700
  0.3529572380357022  0.8556529487238219  0.6456394655804799
  0.5000283142863706  0.3551513682014114  0.3540260880292002
  0.4999717154870397  0.6448486317233496  0.6459739417596504
  0.9806255106021026  0.0000000000000000  0.2499999999646292
  0.0193744893978970  0.0000000000000000  0.7499999998938804
  0.0465011317056800  0.0023616315500014  0.3337867670195456
  0.0441395001556786  0.9976383684499989  0.1662132329097128
  0.9534988682943197  0.9976383684499989  0.6662132328389706
  0.9558604998443209  0.0023616315500014  0.8337867669487974
 
  0.00000000E+00  0.00000000E+00  0.00000000E+00
  0.00000000E+00  0.00000000E+00  0.00000000E+00
  0.00000000E+00  0.00000000E+00  0.00000000E+00
  0.00000000E+00  0.00000000E+00  0.00000000E+00
  0.00000000E+00  0.00000000E+00  0.00000000E+00
  0.00000000E+00  0.00000000E+00  0.00000000E+00
  0.00000000E+00  0.00000000E+00  0.00000000E+00
  0.00000000E+00  0.00000000E+00  0.00000000E+00
  0.00000000E+00  0.00000000E+00  0.00000000E+00
  0.00000000E+00  0.00000000E+00  0.00000000E+00
  0.00000000E+00  0.00000000E+00  0.00000000E+00
  0.00000000E+00  0.00000000E+00  0.00000000E+00
  0.00000000E+00  0.00000000E+00  0.00000000E+00
  0.00000000E+00  0.00000000E+00  0.00000000E+00
  0.00000000E+00  0.00000000E+00  0.00000000E+00
  0.00000000E+00  0.00000000E+00  0.00000000E+00
  0.00000000E+00  0.00000000E+00  0.00000000E+00
  0.00000000E+00  0.00000000E+00  0.00000000E+00
  0.00000000E+00  0.00000000E+00  0.00000000E+00
  0.00000000E+00  0.00000000E+00  0.00000000E+00
  0.00000000E+00  0.00000000E+00  0.00000000E+00
  0.00000000E+00  0.00000000E+00  0.00000000E+00
  0.00000000E+00  0.00000000E+00  0.00000000E+00
  0.00000000E+00  0.00000000E+00  0.00000000E+00
  0.00000000E+00  0.00000000E+00  0.00000000E+00
  0.00000000E+00  0.00000000E+00  0.00000000E+00
  0.00000000E+00  0.00000000E+00  0.00000000E+00
  0.00000000E+00  0.00000000E+00  0.00000000E+00
  0.00000000E+00  0.00000000E+00  0.00000000E+00
  0.00000000E+00  0.00000000E+00  0.00000000E+00
  0.00000000E+00  0.00000000E+00  0.00000000E+00
  0.00000000E+00  0.00000000E+00  0.00000000E+00
  0.00000000E+00  0.00000000E+00  0.00000000E+00
  0.00000000E+00  0.00000000E+00  0.00000000E+00
  0.00000000E+00  0.00000000E+00  0.00000000E+00
  0.00000000E+00  0.00000000E+00  0.00000000E+00
  0.00000000E+00  0.00000000E+00  0.00000000E+00
  0.00000000E+00  0.00000000E+00  0.00000000E+00
  0.00000000E+00  0.00000000E+00  0.00000000E+00
  0.00000000E+00  0.00000000E+00  0.00000000E+00
  0.00000000E+00  0.00000000E+00  0.00000000E+00
  0.00000000E+00  0.00000000E+00  0.00000000E+00
  0.00000000E+00  0.00000000E+00  0.00000000E+00
  0.00000000E+00  0.00000000E+00  0.00000000E+00
  0.00000000E+00  0.00000000E+00  0.00000000E+00
  0.00000000E+00  0.00000000E+00  0.00000000E+00
  0.00000000E+00  0.00000000E+00  0.00000000E+00
  0.00000000E+00  0.00000000E+00  0.00000000E+00
  0.00000000E+00  0.00000000E+00  0.00000000E+00
  0.00000000E+00  0.00000000E+00  0.00000000E+00
  0.00000000E+00  0.00000000E+00  0.00000000E+00
  0.00000000E+00  0.00000000E+00  0.00000000E+00
  0.00000000E+00  0.00000000E+00  0.00000000E+00
  0.00000000E+00  0.00000000E+00  0.00000000E+00
  0.00000000E+00  0.00000000E+00  0.00000000E+00
  0.00000000E+00  0.00000000E+00  0.00000000E+00
  0.00000000E+00  0.00000000E+00  0.00000000E+00
  0.00000000E+00  0.00000000E+00  0.00000000E+00
  0.00000000E+00  0.00000000E+00  0.00000000E+00
  0.00000000E+00  0.00000000E+00  0.00000000E+00
  0.00000000E+00  0.00000000E+00  0.00000000E+00
  0.00000000E+00  0.00000000E+00  0.00000000E+00
  0.00000000E+00  0.00000000E+00  0.00000000E+00
  0.00000000E+00  0.00000000E+00  0.00000000E+00
